&CONTROL
   calculation      = 'scf'
   restart_mode     = 'from_scratch'
   tprnfor          = .true.
   outdir           = './outdir'
   disk_io          = 'none'
   pseudo_dir       = './../pseudo'
/
&SYSTEM
   ibrav            = 0
   nat              = 32
   ntyp             = 1
   nbnd             = 346
   ecutwfc          = 70
   ecutrho          = 280
   occupations      = 'smearing'
   degauss          = 0.02
   smearing         = 'marzari-vanderbilt'
   input_dft        = 'PBE'
/
&ELECTRONS
   electron_maxstep = 200
   conv_thr         = 1e-06
   mixing_beta      = 0.1
   mixing_ndim      = 8
   diagonalization  = 'david'
/
&IONS
/
&CELL
/
&FCP
/
&RISM
/
ATOMIC_SPECIES
Pt 195.084 Pt_ONCV_PBE-1.2.upf

K_POINTS automatic
4 4 4  0 0 0

CELL_PARAMETERS angstrom
7.95911018206958 0.00000000000000 0.00000000000000
0.00000000000000 8.00016310256029 0.00000000000000
0.00000000000000 0.00000000000000 8.01790415063413

ATOMIC_POSITIONS angstrom
Pt -0.0004568736 0.0043407915 0.0016973321  
Pt 0.0066105436 2.0132440904 1.9937743684  
Pt 2.0041736096 -0.0015098805 1.9851970492  
Pt 1.9927695129 2.0047802698 0.0054546705  
Pt -0.0041807992 -0.0025951329 3.9957269882  
Pt -0.0010984107 2.0064751940 5.9883188754  
Pt 1.9881040973 0.0088251016 5.9806539184  
Pt 1.9868232017 2.0089119857 3.9963951217  
Pt 0.0040569846 4.0203699438 0.0037207081  
Pt -0.0019273586 6.0260731214 1.9886712564  
Pt 1.9917169066 4.0170634383 1.9997217633  
Pt 1.9955709116 6.0169254112 -0.0045325483  
Pt 0.0071167101 4.0160640779 3.9807139525  
Pt -0.0099270525 6.0175728432 5.9783059792  
Pt 1.9929245610 4.0202833325 5.9729730645  
Pt 1.9975807879 6.0186620729 3.9781527134  
Pt 3.9970012066 0.0077757316 -0.0049536711  
Pt 3.9950964110 2.0041930253 1.9929139951  
Pt 5.9822799299 0.0000815758 1.9947708832  
Pt 5.9934933642 2.0159283787 -0.0085293976  
Pt 3.9961984485 0.0097321850 3.9841044494  
Pt 3.9832925634 2.0076982697 5.9725389632  
Pt 5.9934382596 -0.0016942828 5.9802790509  
Pt 5.9844907843 2.0161991698 3.9826889945  
Pt 3.9933671279 4.0127805530 0.0077710113  
Pt 3.9836359610 6.0190473859 1.9914262306  
Pt 5.9902938313 4.0251311143 1.9993686305  
Pt 5.9886057431 6.0289764055 0.0036493507  
Pt 3.9969610312 4.0262873758 3.9784727111  
Pt 3.9830148603 6.0269452087 5.9818135044  
Pt 5.9844049948 4.0104258799 5.9712202985  
Pt 5.9905335604 6.0317917851 3.9933527287  

