&CONTROL
   calculation      = 'scf'
   restart_mode     = 'from_scratch'
   tprnfor          = .true.
   outdir           = './outdir'
   disk_io          = 'none'
   pseudo_dir       = './../pseudo'
/
&SYSTEM
   ibrav            = 0
   nat              = 32
   ntyp             = 1
   nbnd             = 346
   ecutwfc          = 70
   ecutrho          = 280
   occupations      = 'smearing'
   degauss          = 0.02
   smearing         = 'marzari-vanderbilt'
   input_dft        = 'PBE'
/
&ELECTRONS
   electron_maxstep = 200
   conv_thr         = 1e-06
   mixing_beta      = 0.1
   mixing_ndim      = 8
   diagonalization  = 'david'
/
&IONS
/
&CELL
/
&FCP
/
&RISM
/
ATOMIC_SPECIES
Pt 195.084 Pt_ONCV_PBE-1.2.upf

K_POINTS automatic
4 4 4  0 0 0

CELL_PARAMETERS angstrom
7.86941507586448 0.00000000000000 0.00000000000000
0.00000000000000 7.90601771675844 0.00000000000000
0.00000000000000 0.00000000000000 7.90827233111655

ATOMIC_POSITIONS angstrom
Pt -0.0046623401 -0.0073047808 -0.0055757651  
Pt 0.0086151599 1.9637018046 1.9704386010  
Pt 1.9652006060 -0.0060317935 1.9690925813  
Pt 1.9601603615 1.9623949967 0.0043119991  
Pt -0.0042120957 -0.0091776092 3.9452950493  
Pt 0.0014140645 1.9768733634 5.9323201321  
Pt 1.9775167576 0.0071609514 5.9362762783  
Pt 1.9725623211 1.9620259107 3.9562494393  
Pt 0.0006578594 3.9285612420 0.0025630901  
Pt -0.0075219107 5.9109529314 1.9686373487  
Pt 1.9712416159 3.9430111168 1.9798019044  
Pt 1.9710993099 5.9039785496 -0.0005536738  
Pt 0.0086532407 3.9442076964 3.9441683889  
Pt -0.0000852706 5.9004241283 5.9278813322  
Pt 1.9758059420 3.9441290185 5.9190292442  
Pt 1.9639551506 5.8956490782 3.9611759874  
Pt 3.9400934497 0.0068699628 -0.0031441840  
Pt 3.9344426664 1.9607590539 1.9809788856  
Pt 5.9048853772 0.0030907691 1.9692638588  
Pt 5.8976396520 1.9764805754 -0.0062943146  
Pt 3.9350397018 0.0057932147 3.9458528911  
Pt 3.9296557498 1.9619948371 5.9290759157  
Pt 5.9015535077 0.0056373839 5.9238188848  
Pt 5.9050366486 1.9708595457 3.9517056974  
Pt 3.9453088616 3.9375496596 -0.0023815558  
Pt 3.9340005203 5.9051078023 1.9765139427  
Pt 5.9107094474 3.9335593152 1.9667365757  
Pt 5.9072732224 5.8974018697 0.0025427276  
Pt 3.9338620534 3.9419229188 3.9509400537  
Pt 3.9328302042 5.9055614320 5.9313819284  
Pt 5.9036284530 3.9380636803 5.9271517501  
Pt 5.8965320014 5.9134352122 3.9554328534  

