&CONTROL
   calculation      = 'scf'
   restart_mode     = 'from_scratch'
   tprnfor          = .true.
   outdir           = './outdir'
   disk_io          = 'none'
   pseudo_dir       = '/scratch/ch24d003/pseudo'
/
&SYSTEM
   ibrav            = 0
   nat              = 32
   ntyp             = 1
   nbnd             = 346
   ecutwfc          = 70
   ecutrho          = 280
   occupations      = 'smearing'
   degauss          = 0.02
   smearing         = 'marzari-vanderbilt'
   input_dft        = 'PBE'
/
&ELECTRONS
   electron_maxstep = 200
   conv_thr         = 1e-06
   mixing_beta      = 0.1
   mixing_ndim      = 8
   diagonalization  = 'david'
/
&IONS
/
&CELL
/
&FCP
/
&RISM
/
ATOMIC_SPECIES
Pt 195.084 Pt_ONCV_PBE-1.2.upf

K_POINTS automatic
4 4 4  0 0 0

CELL_PARAMETERS angstrom
7.89483400000000 0.00000000000000 0.00000000000000
0.00000000000000 7.87004400000000 0.00000000000000
0.00000000000000 0.00000000000000 8.01469200000000

ATOMIC_POSITIONS angstrom
Pt 0.0482707000 7.8138590000 7.9676920000  
Pt 7.8279457000 1.9600973000 2.0226173000  
Pt 1.9113173000 0.1174245000 2.0179105000  
Pt 2.0799263000 1.9788048000 8.0037060000  
Pt 0.0548548000 7.7839360000 3.9738336000  
Pt 7.8105890000 1.9867088000 6.1059610000  
Pt 1.9571352000 0.0104590440 6.0067320000  
Pt 2.0004466000 1.9630572000 3.9784298000  
Pt 0.0160798500 3.9448998000 0.0711774200  
Pt 7.8456600000 5.7957277000 1.9405624000  
Pt 2.0262177000 3.9254003000 2.0017505000  
Pt 2.0103137000 5.8959765000 7.9924570000  
Pt 0.0289068450 3.9234410000 4.1593060000  
Pt 0.0025837151 5.9165260000 6.0909905000  
Pt 2.0544020000 3.8340564000 6.0014105000  
Pt 1.8236821000 5.8628945000 3.9859898000  
Pt 4.0653577000 7.8268500000 0.0007292624  
Pt 3.8838382000 2.0796180000 2.0443080000  
Pt 5.9188740000 0.0080259040 2.0777423000  
Pt 5.9144250000 2.0139136000 8.0070090000  
Pt 3.9954445000 7.7765640000 3.9781303000  
Pt 4.0253950000 1.9325728000 5.9443640000  
Pt 5.9152500000 0.0511423200 6.0316086000  
Pt 5.9165030000 1.8803482000 4.0302563000  
Pt 3.9432938000 4.0854135000 7.9532070000  
Pt 3.8622472000 5.9493265000 2.0021348000  
Pt 5.8753676000 3.9746835000 1.9888613000  
Pt 5.8655934000 5.9236840000 0.1004541000  
Pt 3.9375272000 3.9587839000 3.8729987000  
Pt 4.0007443000 5.8857946000 5.9309860000  
Pt 5.9354540000 3.9198623000 5.9564614000  
Pt 5.8569830000 5.9253473000 4.0314350000  

