&CONTROL
   calculation      = 'scf'
   restart_mode     = 'from_scratch'
   tprnfor          = .true.
   outdir           = './outdir'
   disk_io          = 'none'
   pseudo_dir       = './../pseudo'
/
&SYSTEM
   ibrav            = 0
   nat              = 32
   ntyp             = 1
   nbnd             = 346
   ecutwfc          = 70
   ecutrho          = 280
   occupations      = 'smearing'
   degauss          = 0.02
   smearing         = 'marzari-vanderbilt'
   input_dft        = 'PBE'
/
&ELECTRONS
   electron_maxstep = 200
   conv_thr         = 1e-06
   mixing_beta      = 0.1
   mixing_ndim      = 8
   diagonalization  = 'david'
/
&IONS
/
&CELL
/
&FCP
/
&RISM
/
ATOMIC_SPECIES
Pt 195.084 Pt_ONCV_PBE-1.2.upf

K_POINTS automatic
4 4 4  0 0 0

CELL_PARAMETERS angstrom
7.92985618405670 0.00000000000000 0.00000000000000
0.00000000000000 7.86788042922727 0.00000000000000
0.00000000000000 0.00000000000000 7.92238990750523

ATOMIC_POSITIONS angstrom
Pt 0.0021115322 -0.0004365200 0.0004591459  
Pt 0.0045873808 1.9535122298 1.9934585609  
Pt 2.0033174808 -0.0097482274 1.9948325986  
Pt 2.0071696714 1.9637512153 -0.0012489275  
Pt -0.0022213682 -0.0098408545 3.9707803962  
Pt -0.0068026385 1.9717719743 5.9751885107  
Pt 1.9951742400 -0.0006976631 5.9730952731  
Pt 2.0013504766 1.9647073720 3.9705907119  
Pt 0.0016510510 3.9332225673 -0.0053574231  
Pt -0.0007906064 5.8928849681 1.9811476840  
Pt 1.9937852244 3.9292980721 1.9926713578  
Pt 1.9965384466 5.8874507974 -0.0056401838  
Pt 0.0068066929 3.9175193611 3.9695876712  
Pt -0.0076734645 5.8774732522 5.9593493841  
Pt 1.9894796873 3.9269364567 5.9658470704  
Pt 2.0081293666 5.8869195774 3.9700736546  
Pt 3.9974787043 0.0027630811 0.0055365636  
Pt 4.0003297553 1.9620549448 1.9857191894  
Pt 5.9897876736 0.0058442488 1.9904518369  
Pt 6.0015593074 1.9524927394 0.0066471753  
Pt 3.9918165453 -0.0064523649 3.9788076334  
Pt 4.0026111108 1.9584157072 5.9779909032  
Pt 6.0013752948 0.0076989277 5.9612778006  
Pt 5.9905568565 1.9648696285 3.9763115125  
Pt 3.9951358176 3.9319973234 0.0095864024  
Pt 3.9976559649 5.8780903174 1.9945475312  
Pt 5.9929098063 3.9264082747 1.9798181809  
Pt 5.9962139205 5.8872409832 -0.0073920377  
Pt 4.0037813173 3.9171621877 3.9730092603  
Pt 3.9939375652 5.8897666611 5.9655065378  
Pt 6.0028636099 3.9285327632 5.9673071944  
Pt 6.0045788696 5.8883831945 3.9826649751  

