&CONTROL
   calculation      = 'scf'
   restart_mode     = 'from_scratch'
   tprnfor          = .true.
   outdir           = './outdir'
   disk_io          = 'none'
   pseudo_dir       = '/scratch/ch24d003/pseudo'
/
&SYSTEM
   ibrav            = 0
   nat              = 32
   ntyp             = 1
   nbnd             = 346
   ecutwfc          = 70
   ecutrho          = 280
   occupations      = 'smearing'
   degauss          = 0.02
   smearing         = 'marzari-vanderbilt'
   input_dft        = 'PBE'
/
&ELECTRONS
   electron_maxstep = 200
   conv_thr         = 1e-06
   mixing_beta      = 0.1
   mixing_ndim      = 8
   diagonalization  = 'david'
/
&IONS
/
&CELL
/
&FCP
/
&RISM
/
ATOMIC_SPECIES
Pt 195.084 Pt_ONCV_PBE-1.2.upf

K_POINTS automatic
4 4 4  0 0 0

CELL_PARAMETERS angstrom
7.89483400000000 0.00000000000000 0.00000000000000
0.00000000000000 7.87004400000000 0.00000000000000
0.00000000000000 0.00000000000000 8.01469200000000

ATOMIC_POSITIONS angstrom
Pt 7.8718230000 0.0272261740 0.1039855900  
Pt 0.0282869750 2.0031521000 2.0397573000  
Pt 2.0203774000 0.0568774640 1.8488251000  
Pt 1.9595820000 1.9612275000 7.9450684000  
Pt 0.0581043250 7.6874900000 4.0170918000  
Pt 0.0305020730 2.1153047000 5.9979887000  
Pt 1.9509737000 0.1438382400 5.9516554000  
Pt 1.9028080000 1.8796009000 3.9573972000  
Pt 7.7850466000 3.9936545000 0.0488086830  
Pt 7.8065410000 5.9182453000 2.0751886000  
Pt 1.9146963000 3.8960793000 1.9195534000  
Pt 1.9850892000 5.9561250000 7.9590510000  
Pt 0.1219399200 3.9908228000 3.9125620000  
Pt 0.0698646100 5.9958167000 6.0900710000  
Pt 1.8901230000 3.9053570000 5.9354987000  
Pt 2.1092190000 6.0247020000 4.0056440000  
Pt 3.8730576000 0.0166601460 7.9257350000  
Pt 3.9085784000 1.9062212000 1.9689547000  
Pt 5.9952990000 7.8612013000 1.9084930000  
Pt 5.9931900000 1.9468474000 0.0799053160  
Pt 4.0485210000 7.7965236000 3.9788103000  
Pt 3.9600140000 1.9473661000 6.0063160000  
Pt 5.9345675000 7.8634860000 6.1017427000  
Pt 5.9616227000 1.9767550000 4.0581410000  
Pt 3.9783380000 3.8125510000 7.9609656000  
Pt 3.8507607000 5.8831673000 1.9990660000  
Pt 5.8612914000 3.9217910000 2.0421598000  
Pt 5.8219240000 5.7788740000 0.0855634360  
Pt 3.9616720000 3.9277256000 4.0795317000  
Pt 3.9445355000 5.9642363000 6.1378984000  
Pt 5.8808690000 3.9074156000 6.0123260000  
Pt 5.9314127000 5.8388590000 4.1027630000  

