&CONTROL
   calculation      = 'scf'
   restart_mode     = 'from_scratch'
   tprnfor          = .true.
   outdir           = './outdir'
   disk_io          = 'none'
   pseudo_dir       = './../pseudo'
/
&SYSTEM
   ibrav            = 0
   nat              = 32
   ntyp             = 1
   nbnd             = 346
   ecutwfc          = 70
   ecutrho          = 280
   occupations      = 'smearing'
   degauss          = 0.02
   smearing         = 'marzari-vanderbilt'
   input_dft        = 'PBE'
/
&ELECTRONS
   electron_maxstep = 200
   conv_thr         = 1e-06
   mixing_beta      = 0.1
   mixing_ndim      = 8
   diagonalization  = 'david'
/
&IONS
/
&CELL
/
&FCP
/
&RISM
/
ATOMIC_SPECIES
Pt 195.084 Pt_ONCV_PBE-1.2.upf

K_POINTS automatic
4 4 4  0 0 0

CELL_PARAMETERS angstrom
7.90467098748303 0.00000000000000 0.00000000000000
0.00000000000000 7.99578513034759 0.00000000000000
0.00000000000000 0.00000000000000 7.87768052816593

ATOMIC_POSITIONS angstrom
Pt -0.0095048554 -0.0071912708 0.0024080958  
Pt -0.0043532696 2.0157657398 1.9720485985  
Pt 1.9854299595 0.0071856880 1.9683179142  
Pt 1.9866333536 2.0138639246 0.0032843984  
Pt 0.0035772359 0.0017085154 3.9559230849  
Pt -0.0008886195 2.0064537435 5.9184225731  
Pt 1.9767405412 0.0034669573 5.9210558931  
Pt 1.9747723352 2.0122816247 3.9462186167  
Pt 0.0098937903 4.0185001284 0.0006698140  
Pt -0.0001171656 6.0147722811 1.9732247372  
Pt 1.9885754712 4.0171745676 1.9646297242  
Pt 1.9861120696 6.0147110989 -0.0053075027  
Pt 0.0068587493 4.0067353035 3.9563317688  
Pt 0.0019648663 6.0275939140 5.9243508443  
Pt 1.9737928788 4.0216773536 5.9247272144  
Pt 1.9798801216 6.0273378831 3.9485092406  
Pt 3.9701589239 -0.0017759319 0.0070068187  
Pt 3.9689151279 2.0024711957 1.9723340070  
Pt 5.9476149076 0.0081290588 1.9783606699  
Pt 5.9390834753 2.0149217701 -0.0004591684  
Pt 3.9632513372 0.0023750918 3.9439818066  
Pt 3.9673284744 2.0119495830 5.9130359026  
Pt 5.9442251469 0.0050481098 5.9178088067  
Pt 5.9429907308 1.9980990598 3.9528611707  
Pt 3.9560821219 4.0030574459 0.0095735713  
Pt 3.9606281512 6.0189737380 1.9785131282  
Pt 5.9361236836 4.0148625813 1.9801228095  
Pt 5.9458481371 6.0157275088 -0.0001382381  
Pt 3.9686181809 4.0169876568 3.9506575644  
Pt 3.9592680585 6.0153645140 5.9179798351  
Pt 5.9312193780 4.0219497144 5.9281116511  
Pt 5.9456458500 6.0098837181 3.9503392061  

