&CONTROL
   calculation      = 'scf'
   restart_mode     = 'from_scratch'
   tprnfor          = .true.
   outdir           = './outdir'
   disk_io          = 'none'
   pseudo_dir       = '/scratch/ch24d003/pseudo'
/
&SYSTEM
   ibrav            = 0
   nat              = 32
   ntyp             = 1
   nbnd             = 346
   ecutwfc          = 70
   ecutrho          = 280
   occupations      = 'smearing'
   degauss          = 0.02
   smearing         = 'marzari-vanderbilt'
   input_dft        = 'PBE'
/
&ELECTRONS
   electron_maxstep = 200
   conv_thr         = 1e-06
   mixing_beta      = 0.1
   mixing_ndim      = 8
   diagonalization  = 'david'
/
&IONS
/
&CELL
/
&FCP
/
&RISM
/
ATOMIC_SPECIES
Pt 195.084 Pt_ONCV_PBE-1.2.upf

K_POINTS automatic
4 4 4  0 0 0

CELL_PARAMETERS angstrom
7.89483400000000 0.00000000000000 0.00000000000000
0.00000000000000 7.87004400000000 0.00000000000000
0.00000000000000 0.00000000000000 8.01469200000000

ATOMIC_POSITIONS angstrom
Pt 7.8800864000 0.0777401600 7.9825706000  
Pt 7.8202405000 1.8567259000 1.9516267000  
Pt 1.9147230000 7.8405490000 2.0133305000  
Pt 1.9799663000 1.9354037000 8.0107565000  
Pt 7.8575187000 0.0333828930 3.9905736000  
Pt 7.8757677000 2.0489554000 6.0192710000  
Pt 1.9448664000 0.0167530160 5.9697610000  
Pt 1.9404738000 1.9979206000 4.0951037000  
Pt 0.1105992700 3.9963808000 0.1101820250  
Pt 0.0060698856 5.8243180000 2.1031960000  
Pt 2.0335715000 3.9183142000 2.0610619000  
Pt 1.9434437000 5.9682574000 0.0455239530  
Pt 0.0151136410 3.9513881000 3.9526575000  
Pt 7.8459287000 5.9150953000 6.0640907000  
Pt 1.9977314000 4.0405980000 6.0782824000  
Pt 2.0598242000 5.8893490000 3.9331832000  
Pt 3.9189389000 7.7405960000 7.9957400000  
Pt 4.0164175000 1.9484929000 1.9195113000  
Pt 5.9649690000 7.8455024000 1.9592230000  
Pt 5.8870840000 1.9246911000 7.9541426000  
Pt 3.9147778000 0.0497164900 4.0459943000  
Pt 3.8765347000 1.9660176000 6.0141630000  
Pt 5.9117940000 0.0765321300 6.0022640000  
Pt 5.9052790000 2.0588531000 4.0186210000  
Pt 3.9409964000 3.8178668000 0.0004880535  
Pt 3.9494402000 5.9536550000 1.9546176000  
Pt 5.9476857000 3.9524270000 1.9519074000  
Pt 6.0051340000 5.8955307000 7.9661880000  
Pt 3.9730976000 3.9041982000 4.0358160000  
Pt 3.9679430000 5.8604894000 5.9525976000  
Pt 5.9205313000 3.8701427000 6.1154485000  
Pt 5.8737480000 5.8593135000 4.0033197000  

