&CONTROL
   calculation      = 'scf'
   restart_mode     = 'from_scratch'
   tprnfor          = .true.
   outdir           = './outdir'
   disk_io          = 'none'
   pseudo_dir       = './../pseudo'
/
&SYSTEM
   ibrav            = 0
   nat              = 32
   ntyp             = 1
   nbnd             = 346
   ecutwfc          = 70
   ecutrho          = 280
   occupations      = 'smearing'
   degauss          = 0.02
   smearing         = 'marzari-vanderbilt'
   input_dft        = 'PBE'
/
&ELECTRONS
   electron_maxstep = 200
   conv_thr         = 1e-06
   mixing_beta      = 0.1
   mixing_ndim      = 8
   diagonalization  = 'david'
/
&IONS
/
&CELL
/
&FCP
/
&RISM
/
ATOMIC_SPECIES
Pt 195.084 Pt_ONCV_PBE-1.2.upf

K_POINTS automatic
4 4 4  0 0 0

CELL_PARAMETERS angstrom
7.98900871314767 0.00000000000000 0.00000000000000
0.00000000000000 7.89163704654556 0.00000000000000
0.00000000000000 0.00000000000000 8.02066521198979

ATOMIC_POSITIONS angstrom
Pt -0.0071997900 -0.0065296557 -0.0045249498  
Pt -0.0081446476 1.9814772155 1.9968582785  
Pt 2.0066194673 0.0042978538 1.9895949799  
Pt 2.0130247878 1.9807422643 0.0010714189  
Pt 0.0025724500 0.0023936805 3.9781901305  
Pt -0.0085432254 1.9783644649 5.9611105446  
Pt 2.0142341014 0.0083667247 5.9708883085  
Pt 2.0078300527 1.9646580606 3.9748844678  
Pt 0.0076275148 3.9379950780 -0.0091929137  
Pt -0.0027359758 5.9234935954 1.9972593169  
Pt 2.0092581989 3.9392291606 1.9962393784  
Pt 2.0028996809 5.9117015169 0.0032629502  
Pt -0.0073296410 3.9374732693 3.9772511962  
Pt 0.0029976883 5.9103447119 5.9674980748  
Pt 2.0164202902 3.9402160758 5.9788606728  
Pt 2.0003846910 5.9266992740 3.9893067232  
Pt 4.0232114936 0.0079995796 0.0046450917  
Pt 4.0269852799 1.9671705768 1.9833463723  
Pt 6.0289561305 0.0075423957 1.9960947504  
Pt 6.0317972659 1.9741644610 0.0044019189  
Pt 4.0282453863 -0.0088225464 3.9759050344  
Pt 4.0232824045 1.9733884947 5.9719169585  
Pt 6.0271790725 -0.0070953420 5.9808019913  
Pt 6.0314555423 1.9816328385 3.9766202573  
Pt 4.0184680884 3.9486509194 -0.0015649807  
Pt 4.0256060326 5.9223092556 1.9873012589  
Pt 6.0270179387 3.9448083968 1.9933461698  
Pt 6.0361269940 5.9290985651 -0.0031371813  
Pt 4.0103509723 3.9506904491 3.9740840995  
Pt 4.0174526687 5.9108854641 5.9780214102  
Pt 6.0208564503 3.9547252868 5.9697601583  
Pt 6.0329231408 5.9240462140 3.9863219010  

