&CONTROL
   calculation      = 'scf'
   restart_mode     = 'from_scratch'
   tprnfor          = .true.
   outdir           = './outdir'
   disk_io          = 'none'
   pseudo_dir       = '/scratch/ch24d003/pseudo'
/
&SYSTEM
   ibrav            = 0
   nat              = 32
   ntyp             = 1
   nbnd             = 346
   ecutwfc          = 70
   ecutrho          = 280
   occupations      = 'smearing'
   degauss          = 0.02
   smearing         = 'marzari-vanderbilt'
   input_dft        = 'PBE'
/
&ELECTRONS
   electron_maxstep = 200
   conv_thr         = 1e-06
   mixing_beta      = 0.1
   mixing_ndim      = 8
   diagonalization  = 'david'
/
&IONS
/
&CELL
/
&FCP
/
&RISM
/
ATOMIC_SPECIES
Pt 195.084 Pt_ONCV_PBE-1.2.upf

K_POINTS automatic
4 4 4  0 0 0

CELL_PARAMETERS angstrom
7.89483400000000 0.00000000000000 0.00000000000000
0.00000000000000 7.87004400000000 0.00000000000000
0.00000000000000 0.00000000000000 8.01469200000000

ATOMIC_POSITIONS angstrom
Pt 7.8652000000 7.7453230000 0.0056383708  
Pt 0.0294162170 1.9280947000 1.9951034000  
Pt 1.9282699000 7.8564710000 1.9724754000  
Pt 2.0628338000 2.0028956000 7.9882555000  
Pt 7.8210626000 7.8568006000 3.9989185000  
Pt 0.0488636980 1.8767195000 6.0200214000  
Pt 1.9224670000 7.7867480000 5.9859630000  
Pt 1.9049997000 1.9019111000 3.9912243000  
Pt 0.0303581200 4.0576330000 7.9560003000  
Pt 0.0301415400 5.8783070000 2.0434287000  
Pt 1.8772348000 3.9042718000 2.0334010000  
Pt 2.0345013000 5.8973140000 0.1084051500  
Pt 7.8885170000 4.1059790000 4.1044793000  
Pt 0.0188669260 5.9732920000 6.0345984000  
Pt 2.0409644000 3.8888630000 6.0101275000  
Pt 2.0157034000 5.9187420000 4.0510760000  
Pt 3.8891363000 0.0211058300 0.0801717860  
Pt 3.8673356000 1.9712769000 2.0339339000  
Pt 5.9549994000 0.0152870930 1.9915067000  
Pt 5.9811470000 1.9879638000 0.0500969440  
Pt 3.9749380000 0.0304435230 4.0087710000  
Pt 3.8074663000 1.8763978000 5.9802070000  
Pt 5.9102483000 0.0419029500 6.0668440000  
Pt 5.9959240000 1.9707146000 4.0960630000  
Pt 4.0243297000 3.8800292000 0.0173901000  
Pt 3.9550881000 5.8612313000 1.9378518000  
Pt 5.9784975000 3.9266672000 1.9604294000  
Pt 5.8492785000 5.9664650000 7.9514890000  
Pt 4.0532756000 3.9616196000 3.8295584000  
Pt 3.8144372000 5.9253280000 6.1174920000  
Pt 5.9603906000 3.9611893000 5.8800740000  
Pt 5.8747380000 5.9282110000 3.9408312000  

