&CONTROL
   calculation      = 'scf'
   restart_mode     = 'from_scratch'
   tprnfor          = .true.
   outdir           = './outdir'
   disk_io          = 'none'
   pseudo_dir       = '/scratch/ch24d003/pseudo'
/
&SYSTEM
   ibrav            = 0
   nat              = 32
   ntyp             = 1
   nbnd             = 346
   ecutwfc          = 70
   ecutrho          = 280
   occupations      = 'smearing'
   degauss          = 0.02
   smearing         = 'marzari-vanderbilt'
   input_dft        = 'PBE'
/
&ELECTRONS
   electron_maxstep = 200
   conv_thr         = 1e-06
   mixing_beta      = 0.1
   mixing_ndim      = 8
   diagonalization  = 'david'
/
&IONS
/
&CELL
/
&FCP
/
&RISM
/
ATOMIC_SPECIES
Pt 195.084 Pt_ONCV_PBE-1.2.upf

K_POINTS automatic
4 4 4  0 0 0

CELL_PARAMETERS angstrom
7.89483400000000 0.00000000000000 0.00000000000000
0.00000000000000 7.87004400000000 0.00000000000000
0.00000000000000 0.00000000000000 8.01469200000000

ATOMIC_POSITIONS angstrom
Pt 0.0250153950 0.0413823840 7.9731264000  
Pt 7.8932433000 2.0159721000 2.0254273000  
Pt 2.0151856000 7.8405447000 2.0544436000  
Pt 1.9184994000 1.9078597000 0.0564130620  
Pt 0.0175000880 7.8399950000 4.0334425000  
Pt 0.0435102320 1.9000730000 5.9918440000  
Pt 2.0426624000 0.0161193220 6.0446840000  
Pt 1.9723280000 1.9952964000 4.0305410000  
Pt 7.8668404000 4.0025680000 7.8830960000  
Pt 0.0157261170 5.9660864000 1.9120468000  
Pt 1.9408764000 3.9274025000 1.9743636000  
Pt 2.0382230000 5.8414990000 0.0524895270  
Pt 7.8105946000 3.9687570000 4.0227838000  
Pt 7.8764205000 5.9454618000 5.9694450000  
Pt 1.9443103000 3.9414358000 6.0147690000  
Pt 1.8444171000 5.8194323000 4.0020030000  
Pt 3.9691430000 0.0813592000 0.0317604950  
Pt 3.9835384000 1.9386013000 1.9361777000  
Pt 6.0292096000 0.0980107100 2.0421930000  
Pt 5.9704880000 2.0297346000 7.9716015000  
Pt 3.9367788000 7.8416910000 4.0418763000  
Pt 3.9940119000 2.0062673000 5.9760980000  
Pt 5.8571615000 7.8024960000 6.0482836000  
Pt 5.9792404000 1.9242828000 4.1583676000  
Pt 3.9543245000 3.8669777000 0.0565030400  
Pt 4.0177794000 5.8487300000 2.0805342000  
Pt 5.9300904000 3.9121091000 1.9956871000  
Pt 5.9104247000 5.9124000000 7.9339100000  
Pt 3.9323807000 3.9167469000 4.0206122000  
Pt 3.8657800000 5.8886495000 6.0239040000  
Pt 5.8377040000 3.9109630000 5.9796960000  
Pt 5.8720550000 5.9562964000 3.9183960000  

