&CONTROL
   calculation      = 'scf'
   restart_mode     = 'from_scratch'
   tprnfor          = .true.
   outdir           = './outdir'
   disk_io          = 'none'
   pseudo_dir       = './../pseudo'
/
&SYSTEM
   ibrav            = 0
   nat              = 32
   ntyp             = 1
   nbnd             = 346
   ecutwfc          = 70
   ecutrho          = 280
   occupations      = 'smearing'
   degauss          = 0.02
   smearing         = 'marzari-vanderbilt'
   input_dft        = 'PBE'
/
&ELECTRONS
   electron_maxstep = 200
   conv_thr         = 1e-06
   mixing_beta      = 0.1
   mixing_ndim      = 8
   diagonalization  = 'david'
/
&IONS
/
&CELL
/
&FCP
/
&RISM
/
ATOMIC_SPECIES
Pt 195.084 Pt_ONCV_PBE-1.2.upf

K_POINTS automatic
4 4 4  0 0 0

CELL_PARAMETERS angstrom
7.92001947449168 0.00000000000000 0.00000000000000
0.00000000000000 7.94251334953044 0.00000000000000
0.00000000000000 0.00000000000000 7.87340629066091

ATOMIC_POSITIONS angstrom
Pt 0.0071616050 0.0066503264 0.0047097883  
Pt -0.0081507504 1.9938186457 1.9909777850  
Pt 1.9866528057 -0.0066350957 1.9853915144  
Pt 1.9901365877 2.0111049825 0.0086137456  
Pt -0.0058900449 -0.0063771641 3.9631336280  
Pt -0.0049540863 2.0108693684 5.9603218684  
Pt 1.9800612294 -0.0098564626 5.9594593740  
Pt 1.9850863501 1.9953544025 3.9693213275  
Pt 0.0042208042 4.0038691043 0.0006098037  
Pt 0.0013187984 6.0189026274 1.9752827840  
Pt 1.9861023219 4.0124412052 1.9808142015  
Pt 1.9882151562 6.0153960477 -0.0036062387  
Pt 0.0036041375 4.0128006503 3.9685463337  
Pt 0.0012959228 6.0011354242 5.9640277085  
Pt 1.9768603794 4.0038911923 5.9455301875  
Pt 1.9850590988 6.0136708280 3.9774923632  
Pt 3.9797447955 -0.0002654566 -0.0054889731  
Pt 3.9666363434 2.0043281092 1.9798779426  
Pt 5.9551617031 -0.0052740269 1.9792555631  
Pt 5.9678141853 2.0014353008 0.0000888356  
Pt 3.9703153329 -0.0054524234 3.9662299026  
Pt 3.9682229457 2.0064826710 5.9483611545  
Pt 5.9645577457 -0.0031956486 5.9519840177  
Pt 5.9615542287 1.9985311326 3.9790345503  
Pt 3.9703153187 4.0073881035 -0.0009437377  
Pt 3.9679464318 6.0147755159 1.9920966376  
Pt 5.9587113849 4.0130599016 1.9933834530  
Pt 5.9634632401 6.0147482647 -0.0035671327  
Pt 3.9652889750 4.0016063887 3.9765224465  
Pt 3.9702000212 6.0176529956 5.9450991424  
Pt 5.9514097859 4.0031089436 5.9598426392  
Pt 5.9645714682 6.0125930757 3.9772883085  

