&CONTROL
   calculation      = 'scf'
   restart_mode     = 'from_scratch'
   tprnfor          = .true.
   outdir           = './outdir'
   disk_io          = 'none'
   pseudo_dir       = '/scratch/ch24d003/pseudo'
/
&SYSTEM
   ibrav            = 0
   nat              = 32
   ntyp             = 1
   nbnd             = 346
   ecutwfc          = 70
   ecutrho          = 280
   occupations      = 'smearing'
   degauss          = 0.02
   smearing         = 'marzari-vanderbilt'
   input_dft        = 'PBE'
/
&ELECTRONS
   electron_maxstep = 200
   conv_thr         = 1e-06
   mixing_beta      = 0.1
   mixing_ndim      = 8
   diagonalization  = 'david'
/
&IONS
/
&CELL
/
&FCP
/
&RISM
/
ATOMIC_SPECIES
Pt 195.084 Pt_ONCV_PBE-1.2.upf

K_POINTS automatic
4 4 4  0 0 0

CELL_PARAMETERS angstrom
7.89483400000000 0.00000000000000 0.00000000000000
0.00000000000000 7.87004400000000 0.00000000000000
0.00000000000000 0.00000000000000 8.01469200000000

ATOMIC_POSITIONS angstrom
Pt 0.0178171940 7.8362603000 7.8700280000  
Pt 0.0503589030 1.9626031000 1.9098630000  
Pt 2.0447404000 7.8538940000 2.0914430000  
Pt 1.9993372000 1.9230008000 7.9541910000  
Pt 7.8515577000 7.8091300000 3.9758902000  
Pt 7.8647547000 1.9976453000 5.9873610000  
Pt 1.9407113000 0.0756695400 5.9806027000  
Pt 1.9074067000 1.9567424000 4.0048180000  
Pt 0.0524461830 3.9884415000 7.9813180000  
Pt 0.0952123300 5.9563280000 2.0279694000  
Pt 1.9478065000 3.9199610000 1.8867353000  
Pt 1.9781674000 5.8997550000 0.0421818230  
Pt 0.0011731430 3.9807296000 4.0081890000  
Pt 7.7805705000 5.8991833000 5.9343840000  
Pt 2.0074540000 3.8300840000 6.0091786000  
Pt 2.0047755000 5.9823017000 4.1791935000  
Pt 4.0050526000 0.0544472970 7.9525380000  
Pt 3.8466728000 2.0307384000 2.0683007000  
Pt 5.9193573000 7.8487597000 2.0501099000  
Pt 5.9536376000 1.9696542000 0.0685607940  
Pt 3.9984035000 7.8290114000 4.1067790000  
Pt 3.9522436000 1.9385288000 6.0615770000  
Pt 5.9100165000 0.0186191390 5.8609724000  
Pt 5.9435415000 2.0507872000 3.9813662000  
Pt 3.9727470000 3.8840220000 0.0362085100  
Pt 3.9390757000 5.8664746000 2.0542980000  
Pt 5.8320740000 3.9766570000 1.9739399000  
Pt 5.8610810000 6.0051694000 7.9781450000  
Pt 3.9358920000 3.9003172000 4.0546350000  
Pt 3.9231918000 5.8060956000 6.0431156000  
Pt 5.8960050000 3.8773208000 6.1439770000  
Pt 5.9773483000 5.8469114000 3.9933417000  

