&CONTROL
   calculation      = 'scf'
   restart_mode     = 'from_scratch'
   tprnfor          = .true.
   outdir           = './outdir'
   disk_io          = 'none'
   pseudo_dir       = './../pseudo'
/
&SYSTEM
   ibrav            = 0
   nat              = 32
   ntyp             = 1
   nbnd             = 346
   ecutwfc          = 70
   ecutrho          = 280
   occupations      = 'smearing'
   degauss          = 0.02
   smearing         = 'marzari-vanderbilt'
   input_dft        = 'PBE'
/
&ELECTRONS
   electron_maxstep = 200
   conv_thr         = 1e-06
   mixing_beta      = 0.1
   mixing_ndim      = 8
   diagonalization  = 'david'
/
&IONS
/
&CELL
/
&FCP
/
&RISM
/
ATOMIC_SPECIES
Pt 195.084 Pt_ONCV_PBE-1.2.upf

K_POINTS automatic
4 4 4  0 0 0

CELL_PARAMETERS angstrom
7.92840722512336 0.00000000000000 0.00000000000000
0.00000000000000 7.99300506142248 0.00000000000000
0.00000000000000 0.00000000000000 7.88960620297501

ATOMIC_POSITIONS angstrom
Pt 0.0021630940 0.0014867602 -0.0059385989  
Pt -0.0063123554 1.9901584097 1.9781203099  
Pt 1.9927133318 0.0064602229 1.9807286584  
Pt 1.9839405203 1.9943865090 -0.0054684623  
Pt 0.0059044749 -0.0039080158 3.9667978903  
Pt -0.0061616647 1.9929658243 5.9394006428  
Pt 1.9917876737 -0.0038602773 5.9336022663  
Pt 1.9982287294 1.9917731608 3.9635243800  
Pt 0.0046703060 3.9956659508 -0.0078225162  
Pt 0.0022408556 5.9839624259 1.9703411701  
Pt 1.9979906387 3.9960671281 1.9838468257  
Pt 1.9843021817 5.9908329508 0.0087754688  
Pt -0.0092195297 4.0003220012 3.9543309585  
Pt -0.0047992028 5.9861826659 5.9354380244  
Pt 1.9936326701 3.9843180547 5.9367327196  
Pt 1.9874143418 5.9911238628 3.9654020206  
Pt 3.9786050692 -0.0024989858 -0.0093338100  
Pt 3.9858249745 1.9998916242 1.9803015330  
Pt 5.9716090328 0.0074554765 1.9799142308  
Pt 5.9709259968 1.9974064606 -0.0021499946  
Pt 3.9718832736 -0.0020491081 3.9641828731  
Pt 3.9704709097 1.9858340392 5.9281826512  
Pt 5.9768407182 -0.0067627144 5.9446422274  
Pt 5.9768506763 2.0040762551 3.9629844802  
Pt 3.9882769807 3.9868798373 -0.0074319569  
Pt 3.9743258319 5.9823857650 1.9752461163  
Pt 5.9715801124 3.9874991837 1.9790124354  
Pt 5.9798276612 5.9880116392 -0.0060487271  
Pt 3.9794393721 3.9980744836 3.9676155537  
Pt 3.9726952418 5.9827925035 5.9343182004  
Pt 5.9740494083 3.9831962280 5.9347410275  
Pt 5.9659149798 5.9921738971 3.9581272007  

