&CONTROL
   calculation      = 'scf'
   restart_mode     = 'from_scratch'
   tprnfor          = .true.
   outdir           = './outdir'
   disk_io          = 'none'
   pseudo_dir       = './../pseudo'
/
&SYSTEM
   ibrav            = 0
   nat              = 32
   ntyp             = 1
   nbnd             = 346
   ecutwfc          = 70
   ecutrho          = 280
   occupations      = 'smearing'
   degauss          = 0.02
   smearing         = 'marzari-vanderbilt'
   input_dft        = 'PBE'
/
&ELECTRONS
   electron_maxstep = 200
   conv_thr         = 1e-06
   mixing_beta      = 0.1
   mixing_ndim      = 8
   diagonalization  = 'david'
/
&IONS
/
&CELL
/
&FCP
/
&RISM
/
ATOMIC_SPECIES
Pt 195.084 Pt_ONCV_PBE-1.2.upf

K_POINTS automatic
4 4 4  0 0 0

CELL_PARAMETERS angstrom
7.91811983296825 0.00000000000000 0.00000000000000
0.00000000000000 7.91073526146098 0.00000000000000
0.00000000000000 0.00000000000000 7.98858230588154

ATOMIC_POSITIONS angstrom
Pt -0.0077223822 0.0082455053 0.0044666740  
Pt 0.0010509811 1.9560671451 1.9939689547  
Pt 1.9571731502 -0.0094147730 1.9922793773  
Pt 1.9593263894 1.9615433289 0.0036924895  
Pt -0.0062441121 0.0055018696 3.9995324388  
Pt -0.0093697572 1.9576619798 5.9916557437  
Pt 1.9702483665 -0.0062066090 5.9901660029  
Pt 1.9683697604 1.9547256097 3.9897916855  
Pt -0.0076779849 3.9261670761 0.0060362232  
Pt -0.0009917585 5.8875113875 2.0070899383  
Pt 1.9729218299 3.9136011175 2.0009614135  
Pt 1.9677846027 5.8757060485 -0.0003774586  
Pt -0.0091130793 3.9320196534 3.9987491649  
Pt -0.0035626106 5.8779651269 5.9945674482  
Pt 1.9720942135 3.9283081731 5.9898219192  
Pt 1.9713511496 5.8860996799 3.9866684911  
Pt 3.9342182960 0.0047199309 0.0097572108  
Pt 3.9269110075 1.9651613358 2.0024143007  
Pt 5.8849449996 0.0053733427 2.0023747009  
Pt 5.8928718401 1.9612721409 0.0034649576  
Pt 3.9278507296 0.0068496089 4.0031231389  
Pt 3.9223110637 1.9690161844 5.9936856350  
Pt 5.8884102707 0.0017703167 5.9903618295  
Pt 5.8954566374 1.9543180590 3.9961828316  
Pt 3.9244238570 3.9222493168 -0.0048003626  
Pt 3.9341020042 5.8929166143 1.9953772830  
Pt 5.8992398853 3.9242030038 1.9917561815  
Pt 5.8955963512 5.8745461436 0.0035215042  
Pt 3.9305320493 3.9213077540 3.9885903763  
Pt 3.9286936318 5.8833121409 6.0035938738  
Pt 5.8926785624 3.9296386807 5.9972892012  
Pt 5.8818536114 5.8838661158 4.0026306551  

