&CONTROL
   calculation      = 'scf'
   restart_mode     = 'from_scratch'
   tprnfor          = .true.
   outdir           = './outdir'
   disk_io          = 'none'
   pseudo_dir       = './../pseudo'
/
&SYSTEM
   ibrav            = 0
   nat              = 32
   ntyp             = 1
   nbnd             = 346
   ecutwfc          = 70
   ecutrho          = 280
   occupations      = 'smearing'
   degauss          = 0.02
   smearing         = 'marzari-vanderbilt'
   input_dft        = 'PBE'
/
&ELECTRONS
   electron_maxstep = 200
   conv_thr         = 1e-06
   mixing_beta      = 0.1
   mixing_ndim      = 8
   diagonalization  = 'david'
/
&IONS
/
&CELL
/
&FCP
/
&RISM
/
ATOMIC_SPECIES
Pt 195.084 Pt_ONCV_PBE-1.2.upf

K_POINTS automatic
4 4 4  0 0 0

CELL_PARAMETERS angstrom
8.00052555995405 0.00000000000000 0.00000000000000
0.00000000000000 7.99000237951512 0.00000000000000
0.00000000000000 0.00000000000000 7.90433512135953

ATOMIC_POSITIONS angstrom
Pt -0.0023426639 0.0008079708 -0.0045924061  
Pt -0.0001586413 1.9986504693 1.9870626051  
Pt 1.9875070416 -0.0098666778 1.9805124430  
Pt 1.9907588451 2.0058202282 -0.0026025707  
Pt 0.0082330849 0.0039895244 3.9851530276  
Pt -0.0088242387 1.9976863045 5.9620520206  
Pt 1.9986877222 -0.0029369634 5.9754977229  
Pt 1.9925099291 2.0080975932 3.9813307693  
Pt -0.0027603848 4.0120278194 -0.0024316243  
Pt 0.0011034867 6.0176530124 1.9863512889  
Pt 1.9895698919 4.0191556201 1.9899560731  
Pt 1.9869953229 6.0165494400 -0.0084334725  
Pt 0.0038513110 4.0116593327 3.9686566721  
Pt -0.0088289500 6.0194201595 5.9659353500  
Pt 2.0051621764 4.0046046723 5.9705436805  
Pt 2.0019286230 6.0191220582 3.9704288930  
Pt 3.9937415594 0.0024625209 -0.0029459564  
Pt 3.9840709787 2.0035706314 1.9841477075  
Pt 5.9900064343 0.0090936207 1.9890094002  
Pt 5.9838803591 2.0085395312 -0.0086045039  
Pt 4.0005449158 0.0007691887 3.9844124558  
Pt 3.9968293762 1.9999078984 5.9616850923  
Pt 5.9772766753 -0.0099894802 5.9590516085  
Pt 5.9929413859 2.0145249057 3.9795286755  
Pt 3.9817615509 4.0079582713 0.0085322542  
Pt 3.9812930462 6.0101745375 1.9971083442  
Pt 5.9834133074 4.0186982865 1.9915597657  
Pt 5.9854487376 6.0132071062 0.0016550833  
Pt 3.9883394413 4.0028717146 3.9786596811  
Pt 3.9850571263 6.0115285772 5.9701536430  
Pt 5.9813428810 4.0178310843 5.9647918624  
Pt 5.9769083353 6.0151500001 3.9696080909  

