&CONTROL
   calculation      = 'scf'
   restart_mode     = 'from_scratch'
   tprnfor          = .true.
   outdir           = './outdir'
   disk_io          = 'none'
   pseudo_dir       = './../pseudo'
/
&SYSTEM
   ibrav            = 0
   nat              = 32
   ntyp             = 1
   nbnd             = 346
   ecutwfc          = 70
   ecutrho          = 280
   occupations      = 'smearing'
   degauss          = 0.02
   smearing         = 'marzari-vanderbilt'
   input_dft        = 'PBE'
/
&ELECTRONS
   electron_maxstep = 200
   conv_thr         = 1e-06
   mixing_beta      = 0.1
   mixing_ndim      = 8
   diagonalization  = 'david'
/
&IONS
/
&CELL
/
&FCP
/
&RISM
/
ATOMIC_SPECIES
Pt 195.084 Pt_ONCV_PBE-1.2.upf

K_POINTS automatic
4 4 4  0 0 0

CELL_PARAMETERS angstrom
8.01597021311381 0.00000000000000 0.00000000000000
0.00000000000000 7.96905260051664 0.00000000000000
0.00000000000000 0.00000000000000 8.00977962233411

ATOMIC_POSITIONS angstrom
Pt 0.0045470727 0.0074919453 0.0077558148  
Pt 0.0010677068 1.9901454612 1.9874626919  
Pt 2.0079152136 0.0036097097 1.9782262374  
Pt 2.0137764168 1.9850580837 -0.0006693695  
Pt 0.0037799747 0.0097741336 3.9639440272  
Pt 0.0025279008 1.9968227115 5.9633727353  
Pt 2.0104828135 -0.0006511614 5.9602808209  
Pt 2.0128450918 1.9907490899 3.9675787237  
Pt 0.0026144475 3.9687700835 -0.0024654913  
Pt 0.0004039704 5.9567860559 1.9935620075  
Pt 2.0184280778 3.9840129076 1.9760818483  
Pt 2.0068852335 5.9685765390 0.0047168457  
Pt 0.0007779081 3.9837053555 3.9787539347  
Pt -0.0095328326 5.9680364925 5.9572885599  
Pt 2.0068628973 3.9843657743 5.9494822211  
Pt 2.0099706213 5.9664887420 3.9634295739  
Pt 4.0233612906 -0.0043068535 0.0018435763  
Pt 4.0253381819 1.9967038212 1.9795824771  
Pt 6.0260103827 -0.0037960822 1.9803886952  
Pt 6.0375354089 1.9812021199 0.0046785066  
Pt 4.0148038575 -0.0076328370 3.9707187631  
Pt 4.0167696378 1.9953571069 5.9508436776  
Pt 6.0366352664 -0.0099828158 5.9492803670  
Pt 6.0329803508 1.9878983237 3.9734366118  
Pt 4.0210148466 3.9659612793 0.0071935061  
Pt 4.0270634277 5.9702212776 1.9816990394  
Pt 6.0220981780 3.9797727871 1.9808299590  
Pt 6.0356816405 5.9680911622 -0.0074433227  
Pt 4.0255620016 3.9810400141 3.9630493117  
Pt 4.0217884156 5.9636944608 5.9585506454  
Pt 6.0193538729 3.9819086237 5.9462040784  
Pt 6.0372393369 5.9549589201 3.9712472900  

