&CONTROL
   calculation      = 'scf'
   restart_mode     = 'from_scratch'
   tprnfor          = .true.
   outdir           = './outdir'
   disk_io          = 'none'
   pseudo_dir       = './../pseudo'
/
&SYSTEM
   ibrav            = 0
   nat              = 32
   ntyp             = 1
   nbnd             = 346
   ecutwfc          = 70
   ecutrho          = 280
   occupations      = 'smearing'
   degauss          = 0.02
   smearing         = 'marzari-vanderbilt'
   input_dft        = 'PBE'
/
&ELECTRONS
   electron_maxstep = 200
   conv_thr         = 1e-06
   mixing_beta      = 0.1
   mixing_ndim      = 8
   diagonalization  = 'david'
/
&IONS
/
&CELL
/
&FCP
/
&RISM
/
ATOMIC_SPECIES
Pt 195.084 Pt_ONCV_PBE-1.2.upf

K_POINTS automatic
4 4 4  0 0 0

CELL_PARAMETERS angstrom
7.96858024284457 0.00000000000000 0.00000000000000
0.00000000000000 7.94312851582644 0.00000000000000
0.00000000000000 0.00000000000000 7.98612192117552

ATOMIC_POSITIONS angstrom
Pt -0.0024743476 0.0040560035 -0.0047587794  
Pt 0.0017500409 1.9635057079 2.0235069970  
Pt 1.9897487492 0.0021673242 2.0166213198  
Pt 1.9816188428 1.9699874512 -0.0009687755  
Pt 0.0046609302 0.0092770591 4.0206146750  
Pt -0.0044992137 1.9737052046 6.0368261368  
Pt 1.9823192536 0.0054599166 6.0375909268  
Pt 1.9790384084 1.9766326825 4.0193910437  
Pt 0.0054641960 3.9306983250 0.0074611291  
Pt -0.0021856958 5.9082012179 2.0054966670  
Pt 1.9953735893 3.9332349347 2.0141927014  
Pt 1.9891750728 5.9005006654 0.0083241091  
Pt 0.0019149850 3.9442001954 4.0173565822  
Pt -0.0008375452 5.9002664688 6.0470413292  
Pt 1.9867218502 3.9375633632 6.0401309462  
Pt 1.9868997059 5.9119925347 4.0338213600  
Pt 3.9762397398 -0.0051877704 0.0054053542  
Pt 3.9758173714 1.9594265236 2.0193157223  
Pt 5.9548666198 -0.0008887262 2.0095708059  
Pt 5.9612714284 1.9696654647 0.0052468066  
Pt 3.9841856968 0.0076821855 4.0181087519  
Pt 3.9705943634 1.9725470805 6.0485527768  
Pt 5.9687526421 0.0089486590 6.0448429068  
Pt 5.9679399135 1.9730511977 4.0225252367  
Pt 3.9797250907 3.9390419542 -0.0093482414  
Pt 3.9834193823 5.9134505670 2.0228959547  
Pt 5.9638077633 3.9468881450 2.0218975966  
Pt 5.9645186496 5.8998338860 0.0099475601  
Pt 3.9671868848 3.9424661008 4.0348882055  
Pt 3.9670400615 5.9095060558 6.0418457558  
Pt 5.9725471312 3.9358136150 6.0474612829  
Pt 5.9598302015 5.8980741968 4.0270100494  

