&CONTROL
   calculation      = 'scf'
   restart_mode     = 'from_scratch'
   tprnfor          = .true.
   outdir           = './outdir'
   disk_io          = 'none'
   pseudo_dir       = './../pseudo'
/
&SYSTEM
   ibrav            = 0
   nat              = 32
   ntyp             = 1
   nbnd             = 346
   ecutwfc          = 70
   ecutrho          = 280
   occupations      = 'smearing'
   degauss          = 0.02
   smearing         = 'marzari-vanderbilt'
   input_dft        = 'PBE'
/
&ELECTRONS
   electron_maxstep = 200
   conv_thr         = 1e-06
   mixing_beta      = 0.1
   mixing_ndim      = 8
   diagonalization  = 'david'
/
&IONS
/
&CELL
/
&FCP
/
&RISM
/
ATOMIC_SPECIES
Pt 195.084 Pt_ONCV_PBE-1.2.upf

K_POINTS automatic
4 4 4  0 0 0

CELL_PARAMETERS angstrom
7.99527815494414 0.00000000000000 0.00000000000000
0.00000000000000 7.93837561090289 0.00000000000000
0.00000000000000 0.00000000000000 7.88578042374752

ATOMIC_POSITIONS angstrom
Pt -0.0008518445 0.0049310015 -0.0020541353  
Pt -0.0055404354 1.9886598169 1.9618316753  
Pt 2.0190250394 -0.0066575715 1.9660323779  
Pt 2.0216284542 1.9881544933 0.0024789429  
Pt -0.0087971015 -0.0054294197 3.9187065375  
Pt -0.0032218126 1.9891257299 5.8836626384  
Pt 2.0252534484 -0.0070606623 5.8879868465  
Pt 2.0116746035 1.9845729260 3.9162684268  
Pt 0.0000889479 3.9851973372 -0.0063788993  
Pt -0.0027785336 5.9576845217 1.9585448621  
Pt 2.0186761998 3.9817974145 1.9667141777  
Pt 2.0182448094 5.9563551491 0.0007970725  
Pt 0.0023191350 3.9663254725 3.9151864660  
Pt 0.0034066587 5.9713390092 5.8772300616  
Pt 2.0221440536 3.9748565685 5.8770370063  
Pt 2.0145015242 5.9726222202 3.9308005624  
Pt 4.0285671652 -0.0002263267 0.0036403678  
Pt 4.0360803199 1.9782143190 1.9609504745  
Pt 6.0476025774 -0.0022164729 1.9635349527  
Pt 6.0375149201 1.9819209164 0.0076116630  
Pt 4.0319772267 0.0099097893 3.9226121863  
Pt 4.0271670770 1.9815852609 5.8814080053  
Pt 6.0426917618 -0.0000244492 5.8944518513  
Pt 6.0444367407 1.9818522974 3.9273407053  
Pt 4.0215488184 3.9826210821 -0.0079859642  
Pt 4.0258022501 5.9657859301 1.9655211256  
Pt 6.0425209730 3.9791180526 1.9639146926  
Pt 6.0512296423 5.9639098835 -0.0024482969  
Pt 4.0396789713 3.9776818424 3.9212393319  
Pt 4.0378634702 5.9714931593 5.8918409762  
Pt 6.0430032431 3.9776116432 5.8899128408  
Pt 6.0507762324 5.9602159337 3.9299785250  

