&CONTROL
   calculation      = 'scf'
   restart_mode     = 'from_scratch'
   tprnfor          = .true.
   outdir           = './outdir'
   disk_io          = 'none'
   pseudo_dir       = './../pseudo'
/
&SYSTEM
   ibrav            = 0
   nat              = 32
   ntyp             = 1
   nbnd             = 346
   ecutwfc          = 70
   ecutrho          = 280
   occupations      = 'smearing'
   degauss          = 0.02
   smearing         = 'marzari-vanderbilt'
   input_dft        = 'PBE'
/
&ELECTRONS
   electron_maxstep = 200
   conv_thr         = 1e-06
   mixing_beta      = 0.1
   mixing_ndim      = 8
   diagonalization  = 'david'
/
&IONS
/
&CELL
/
&FCP
/
&RISM
/
ATOMIC_SPECIES
Pt 195.084 Pt_ONCV_PBE-1.2.upf

K_POINTS automatic
4 4 4  0 0 0

CELL_PARAMETERS angstrom
8.01854828052037 0.00000000000000 0.00000000000000
0.00000000000000 7.91576085594545 0.00000000000000
0.00000000000000 0.00000000000000 8.00262618652180

ATOMIC_POSITIONS angstrom
Pt 0.0081791312 0.0060205784 -0.0091825431  
Pt 0.0025563509 1.9712555738 1.9896090127  
Pt 1.9904335828 -0.0040386157 1.9971236061  
Pt 2.0004577338 1.9602033535 -0.0011077755  
Pt 0.0034397527 -0.0023663971 3.9953180335  
Pt -0.0031658493 1.9637808309 5.9904877607  
Pt 1.9963955414 -0.0007481120 6.0021313187  
Pt 2.0002316205 1.9643872211 4.0006015173  
Pt -0.0072093096 3.9294888095 0.0003633685  
Pt 0.0036954569 5.9101368183 2.0060090525  
Pt 2.0037623530 3.9379365146 1.9987032950  
Pt 2.0034397226 5.9075563952 -0.0061383530  
Pt -0.0017981077 3.9421754330 3.9980408315  
Pt 0.0039339722 5.9098377748 6.0040012590  
Pt 2.0028247470 3.9363846632 6.0043212596  
Pt 1.9913878394 5.8970631213 4.0051279050  
Pt 3.9869084624 0.0064845393 0.0005787602  
Pt 3.9866349685 1.9696980681 2.0079772897  
Pt 5.9884943469 -0.0097664753 1.9919638503  
Pt 5.9933706071 1.9641580845 0.0005132516  
Pt 3.9871667614 -0.0098951290 3.9949326521  
Pt 4.0006724285 1.9728636627 5.9933760423  
Pt 5.9933248083 0.0096215805 5.9972959466  
Pt 5.9852476684 1.9652172098 3.9985995422  
Pt 3.9856408632 3.9353096614 0.0025487592  
Pt 3.9982026920 5.9020192044 1.9988681269  
Pt 5.9895621982 3.9426337861 1.9910779336  
Pt 5.9992145593 5.8959785582 0.0032457820  
Pt 3.9861555645 3.9301192314 3.9946629617  
Pt 3.9937835097 5.9051868929 6.0039675916  
Pt 5.9868290998 3.9313080100 6.0028370111  
Pt 5.9842152394 5.9088401745 3.9929114028  

