&CONTROL
   calculation      = 'scf'
   restart_mode     = 'from_scratch'
   tprnfor          = .true.
   outdir           = './outdir'
   disk_io          = 'none'
   pseudo_dir       = '/scratch/ch24d003/pseudo'
/
&SYSTEM
   ibrav            = 0
   nat              = 32
   ntyp             = 1
   nbnd             = 346
   ecutwfc          = 70
   ecutrho          = 280
   occupations      = 'smearing'
   degauss          = 0.02
   smearing         = 'marzari-vanderbilt'
   input_dft        = 'PBE'
/
&ELECTRONS
   electron_maxstep = 200
   conv_thr         = 1e-06
   mixing_beta      = 0.1
   mixing_ndim      = 8
   diagonalization  = 'david'
/
&IONS
/
&CELL
/
&FCP
/
&RISM
/
ATOMIC_SPECIES
Pt 195.084 Pt_ONCV_PBE-1.2.upf

K_POINTS automatic
4 4 4  0 0 0

CELL_PARAMETERS angstrom
7.89483400000000 0.00000000000000 0.00000000000000
0.00000000000000 7.87004400000000 0.00000000000000
0.00000000000000 0.00000000000000 8.01469200000000

ATOMIC_POSITIONS angstrom
Pt 0.0271438290 7.8281484000 7.9284790000  
Pt 7.8742023000 1.9152802000 1.9277543000  
Pt 2.0648140000 7.8654547000 1.9640226000  
Pt 2.0451070000 2.0624096000 0.0441444330  
Pt 7.8787155000 0.0835125500 4.0705476000  
Pt 7.7979260000 1.9530467000 6.1025100000  
Pt 1.9202591000 7.8197494000 6.1659420000  
Pt 1.9989011000 1.9854966000 3.9538510000  
Pt 7.8799610000 3.9032880000 8.0083630000  
Pt 0.0264204160 6.0027730000 2.1628752000  
Pt 1.8954290000 4.0508560000 2.0074642000  
Pt 1.8879726000 5.8841634000 0.0088721365  
Pt 0.0649806560 3.8388917000 4.0746474000  
Pt 7.8609967000 5.9374940000 5.9625470000  
Pt 1.9800932000 3.8895510000 5.9499207000  
Pt 1.9817802000 5.7938420000 4.0580650000  
Pt 3.9402537000 7.7373233000 0.0101164720  
Pt 3.9502208000 2.0091476000 1.9675715000  
Pt 5.8691830000 7.8488420000 2.0513860000  
Pt 5.9093990000 1.9323087000 0.0305451960  
Pt 3.9019752000 0.0364648800 4.0907564000  
Pt 3.9802513000 1.9063563000 5.9991770000  
Pt 5.8518820000 0.0206852050 5.9427695000  
Pt 5.8654070000 1.9479434000 3.9925880000  
Pt 3.9731681000 3.9972956000 7.9640875000  
Pt 3.9769320000 5.9216450000 1.9758025000  
Pt 5.9621350000 3.9312518000 1.9706918000  
Pt 5.9817850000 5.9135814000 7.9448970000  
Pt 4.0460110000 3.8748307000 4.0311780000  
Pt 3.9629083000 5.9023330000 5.9789495000  
Pt 6.0259290000 4.0544460000 5.9689820000  
Pt 5.8181550000 5.9268312000 3.9470150000  

