&CONTROL
   calculation      = 'scf'
   restart_mode     = 'from_scratch'
   tprnfor          = .true.
   outdir           = './outdir'
   disk_io          = 'none'
   pseudo_dir       = './../pseudo'
/
&SYSTEM
   ibrav            = 0
   nat              = 32
   ntyp             = 1
   nbnd             = 346
   ecutwfc          = 70
   ecutrho          = 280
   occupations      = 'smearing'
   degauss          = 0.02
   smearing         = 'marzari-vanderbilt'
   input_dft        = 'PBE'
/
&ELECTRONS
   electron_maxstep = 200
   conv_thr         = 1e-06
   mixing_beta      = 0.1
   mixing_ndim      = 8
   diagonalization  = 'david'
/
&IONS
/
&CELL
/
&FCP
/
&RISM
/
ATOMIC_SPECIES
Pt 195.084 Pt_ONCV_PBE-1.2.upf

K_POINTS automatic
4 4 4  0 0 0

CELL_PARAMETERS angstrom
8.02141817858837 0.00000000000000 0.00000000000000
0.00000000000000 7.88108723624638 0.00000000000000
0.00000000000000 0.00000000000000 7.92333320271729

ATOMIC_POSITIONS angstrom
Pt -0.0003151014 0.0080391899 0.0080153254  
Pt -0.0008227135 1.9865024522 1.9698344035  
Pt 2.0064459091 0.0095841968 1.9591032555  
Pt 2.0127891320 1.9861680745 0.0038255752  
Pt -0.0039566159 0.0092494826 3.9327973974  
Pt 0.0026357119 1.9808318192 5.8939712943  
Pt 2.0140076450 -0.0074400360 5.8896840633  
Pt 2.0106565066 1.9828791401 3.9186427420  
Pt -0.0044569638 3.9654835108 0.0081149014  
Pt -0.0049574063 5.9285943190 1.9558066120  
Pt 2.0002888888 3.9493440926 1.9639459624  
Pt 2.0091041139 5.9435810008 -0.0057551013  
Pt -0.0029653695 3.9528447852 3.9273083983  
Pt -0.0036216580 5.9311361459 5.8802896951  
Pt 2.0057317469 3.9534058693 5.8831167339  
Pt 2.0014132653 5.9455013702 3.9293864034  
Pt 4.0169035076 0.0048066534 0.0084330402  
Pt 4.0058384577 1.9695166650 1.9655500781  
Pt 6.0213212886 0.0017167095 1.9576866309  
Pt 6.0256598871 1.9717599747 -0.0050687782  
Pt 4.0030475550 -0.0060101113 3.9246096153  
Pt 4.0215009754 1.9705727486 5.8872152468  
Pt 6.0221737120 -0.0047271482 5.8857122573  
Pt 6.0262601788 1.9833719673 3.9212990770  
Pt 4.0058449861 3.9622821760 -0.0040911351  
Pt 4.0081397960 5.9365000515 1.9598758599  
Pt 6.0114667898 3.9546181141 1.9621830319  
Pt 6.0219213301 5.9448255728 0.0007378790  
Pt 4.0031761055 3.9501750441 3.9183538183  
Pt 4.0085091103 5.9390661446 5.8859181905  
Pt 6.0219281020 3.9623846998 5.8870831548  
Pt 6.0195843489 5.9340784795 3.9269455426  

