&CONTROL
   calculation      = 'scf'
   restart_mode     = 'from_scratch'
   tprnfor          = .true.
   outdir           = './outdir'
   disk_io          = 'none'
   pseudo_dir       = './../pseudo'
/
&SYSTEM
   ibrav            = 0
   nat              = 32
   ntyp             = 1
   nbnd             = 346
   ecutwfc          = 70
   ecutrho          = 280
   occupations      = 'smearing'
   degauss          = 0.02
   smearing         = 'marzari-vanderbilt'
   input_dft        = 'PBE'
/
&ELECTRONS
   electron_maxstep = 200
   conv_thr         = 1e-06
   mixing_beta      = 0.1
   mixing_ndim      = 8
   diagonalization  = 'david'
/
&IONS
/
&CELL
/
&FCP
/
&RISM
/
ATOMIC_SPECIES
Pt 195.084 Pt_ONCV_PBE-1.2.upf

K_POINTS automatic
4 4 4  0 0 0

CELL_PARAMETERS angstrom
7.90929450504752 0.00000000000000 0.00000000000000
0.00000000000000 7.95425526064758 0.00000000000000
0.00000000000000 0.00000000000000 8.00730185609665

ATOMIC_POSITIONS angstrom
Pt 0.0062709618 -0.0014481928 0.0100176730  
Pt -0.0007560229 1.9917247703 1.9911773795  
Pt 1.9958831381 -0.0046392426 2.0029578998  
Pt 1.9960157524 1.9860809210 -0.0023310543  
Pt 0.0063326666 0.0072013891 4.0081454129  
Pt -0.0027099152 1.9888740146 6.0037689571  
Pt 1.9953949722 -0.0028492091 5.9997391563  
Pt 1.9937441307 1.9844174161 4.0053423993  
Pt -0.0061880845 3.9568113751 -0.0029664252  
Pt 0.0012895262 5.9403895170 1.9933653495  
Pt 1.9908999132 3.9650961667 2.0062431483  
Pt 1.9981448355 5.9532211453 -0.0099985410  
Pt 0.0011680493 3.9727835396 4.0043588866  
Pt 0.0019960303 5.9522374670 5.9938627217  
Pt 1.9859210375 3.9652668395 6.0051172046  
Pt 1.9886234851 5.9372300464 3.9932061901  
Pt 3.9874717561 -0.0089853348 0.0011278804  
Pt 3.9883990361 1.9741823414 2.0057693279  
Pt 5.9799527453 -0.0099409999 2.0058220001  
Pt 5.9801507906 1.9745385016 -0.0096243973  
Pt 3.9888986504 -0.0055553390 3.9948890643  
Pt 3.9757278755 1.9921585710 5.9963173426  
Pt 5.9613240839 -0.0094107277 6.0014045450  
Pt 5.9688785353 1.9833446977 4.0027155535  
Pt 3.9838644264 3.9696053362 -0.0028233894  
Pt 3.9830818409 5.9497170987 2.0041743190  
Pt 5.9710195381 3.9733306794 2.0090320274  
Pt 5.9670614867 5.9411144439 0.0070121422  
Pt 3.9897293395 3.9577495248 3.9892536240  
Pt 3.9745557208 5.9489628202 5.9991457491  
Pt 5.9762668287 3.9739896105 5.9998111468  
Pt 5.9658137872 5.9441404528 3.9965030168  

