&CONTROL
   calculation      = 'scf'
   restart_mode     = 'from_scratch'
   tprnfor          = .true.
   outdir           = './outdir'
   disk_io          = 'none'
   pseudo_dir       = './../pseudo'
/
&SYSTEM
   ibrav            = 0
   nat              = 32
   ntyp             = 1
   nbnd             = 346
   ecutwfc          = 70
   ecutrho          = 280
   occupations      = 'smearing'
   degauss          = 0.02
   smearing         = 'marzari-vanderbilt'
   input_dft        = 'PBE'
/
&ELECTRONS
   electron_maxstep = 200
   conv_thr         = 1e-06
   mixing_beta      = 0.1
   mixing_ndim      = 8
   diagonalization  = 'david'
/
&IONS
/
&CELL
/
&FCP
/
&RISM
/
ATOMIC_SPECIES
Pt 195.084 Pt_ONCV_PBE-1.2.upf

K_POINTS automatic
4 4 4  0 0 0

CELL_PARAMETERS angstrom
7.87797166005318 0.00000000000000 0.00000000000000
0.00000000000000 7.93209771272887 0.00000000000000
0.00000000000000 0.00000000000000 7.98217440747718

ATOMIC_POSITIONS angstrom
Pt -0.0049069403 0.0063865400 -0.0017244854  
Pt -0.0072004747 1.9722833123 2.0072387679  
Pt 1.9598261522 -0.0012567324 2.0011490398  
Pt 1.9438327952 1.9689854738 -0.0077163158  
Pt 0.0085837850 0.0026924529 3.9997511945  
Pt -0.0080965509 1.9652880444 6.0053285563  
Pt 1.9560049216 0.0050576924 5.9964900164  
Pt 1.9575286032 1.9725054242 3.9978995550  
Pt -0.0058805483 3.9482054639 -0.0061086604  
Pt -0.0012284085 5.9184457734 2.0034624001  
Pt 1.9546724348 3.9488650204 1.9920386775  
Pt 1.9523438622 5.9086016851 0.0067212146  
Pt 0.0016696272 3.9433058057 3.9948292063  
Pt -0.0018874711 5.9118564062 6.0070571545  
Pt 1.9515228224 3.9417362203 5.9990478663  
Pt 1.9593625687 5.8996114445 3.9916294504  
Pt 3.8970307056 -0.0087131735 0.0067394431  
Pt 3.8968416473 1.9694709409 1.9895533586  
Pt 5.8637709314 -0.0030798574 2.0017218642  
Pt 5.8644279085 1.9718967336 0.0011501787  
Pt 3.9050110746 0.0041419185 3.9939351392  
Pt 3.9107407131 1.9713771029 6.0011203892  
Pt 5.8516371731 -0.0085579477 6.0060174790  
Pt 5.8531247888 1.9640608018 3.9996182251  
Pt 3.9090259130 3.9366436570 0.0026825298  
Pt 3.8989905954 5.9109458000 2.0080427304  
Pt 5.8579645921 3.9363894180 2.0083212016  
Pt 5.8532364262 5.9088304751 -0.0061425934  
Pt 3.9057358882 3.9382149527 3.9928749146  
Pt 3.9004149131 5.9075035054 6.0035829118  
Pt 5.8589246365 3.9322968310 5.9979335371  
Pt 5.8607510877 5.9028680561 4.0006886204  

