&CONTROL
   calculation      = 'scf'
   restart_mode     = 'from_scratch'
   tprnfor          = .true.
   outdir           = './outdir'
   disk_io          = 'none'
   pseudo_dir       = '/scratch/ch24d003/pseudo/'
/
&SYSTEM
   ibrav            = 0
   nat              = 4
   ntyp             = 1
   nbnd             = 44
   ecutwfc          = 70
   ecutrho          = 280
   occupations      = 'smearing'
   degauss          = 0.02
   smearing         = 'marzari-vanderbilt'
   input_dft        = 'PBE'
/
&ELECTRONS
   electron_maxstep = 200
   conv_thr         = 1e-06
   mixing_beta      = 0.1
   mixing_ndim      = 8
   diagonalization  = 'david'
/
&IONS
/
&CELL
/
&FCP
/
&RISM
/
ATOMIC_SPECIES
Pt 195.084 Pt_ONCV_PBE-1.2.upf

K_POINTS automatic
8 8 8  0 0 0

CELL_PARAMETERS angstrom
3.94315036000000 0.00000000000000 0.00000000000000
0.00000000000000 3.94315036000000 0.00000000000000
0.00000000000000 0.00000000000000 3.94315036000000

ATOMIC_POSITIONS angstrom
Pt 0.0000000000 0.0000000000 0.0000000000  
Pt 0.0000000000 1.9715751800 1.9715751800  
Pt 1.9715751800 0.0000000000 1.9715751800  
Pt 1.9715751800 1.9715751800 0.0000000000  

