&CONTROL
   calculation      = 'scf'
   restart_mode     = 'from_scratch'
   tprnfor          = .true.
   outdir           = './outdir'
   disk_io          = 'none'
   pseudo_dir       = '/scratch/ch24d003/pseudo'
/
&SYSTEM
   ibrav            = 0
   nat              = 32
   ntyp             = 1
   nbnd             = 346
   ecutwfc          = 70
   ecutrho          = 280
   occupations      = 'smearing'
   degauss          = 0.02
   smearing         = 'marzari-vanderbilt'
   input_dft        = 'PBE'
/
&ELECTRONS
   electron_maxstep = 200
   conv_thr         = 1e-06
   mixing_beta      = 0.1
   mixing_ndim      = 8
   diagonalization  = 'david'
/
&IONS
/
&CELL
/
&FCP
/
&RISM
/
ATOMIC_SPECIES
Pt 195.084 Pt_ONCV_PBE-1.2.upf

K_POINTS automatic
4 4 4  0 0 0

CELL_PARAMETERS angstrom
7.89483400000000 0.00000000000000 0.00000000000000
0.00000000000000 7.87004400000000 0.00000000000000
0.00000000000000 0.00000000000000 8.01469200000000

ATOMIC_POSITIONS angstrom
Pt 0.0227772200 0.1356771600 0.0368433500  
Pt 0.0921914600 1.9190762000 2.2724519000  
Pt 1.9629567000 0.0345860400 2.0419110000  
Pt 1.7514344000 2.1160898000 7.9623985000  
Pt 0.0348507200 7.8380494000 4.1526810000  
Pt 7.7690735000 1.9837321000 5.9978437000  
Pt 1.9205815000 0.0077114706 5.9801850000  
Pt 1.9752319000 1.8417244000 4.0892944000  
Pt 7.7813883000 3.9447536000 7.9667416000  
Pt 0.0296533070 5.9913263000 2.0545557000  
Pt 2.1003258000 3.9137685000 2.0003920000  
Pt 2.1280096000 5.8818760000 0.0319233050  
Pt 0.1474247400 3.9039547000 3.9494972000  
Pt 0.0401051450 5.8570294000 5.9720063000  
Pt 1.9300450000 4.0185270000 6.0606985000  
Pt 1.9434758000 5.8066640000 4.0225616000  
Pt 3.8418186000 0.0635970760 7.9932556000  
Pt 3.8492308000 2.0087106000 1.9912869000  
Pt 5.8422430000 0.0373659100 2.0079837000  
Pt 5.7764470000 1.9965466000 0.0978118400  
Pt 4.0369277000 7.8319874000 3.9720290000  
Pt 3.9027562000 1.8611481000 5.8682485000  
Pt 5.9620540000 7.7066336000 6.0950700000  
Pt 5.9358597000 1.8501860000 4.0088580000  
Pt 4.0062046000 3.8629718000 7.9383593000  
Pt 3.8924694000 5.9096940000 1.9389464000  
Pt 5.9369016000 3.9995220000 2.0394960000  
Pt 5.9535437000 5.8741875000 0.1041306850  
Pt 3.9405730000 4.0134390000 3.9902792000  
Pt 4.0408397000 5.9579790000 5.8037076000  
Pt 5.9639626000 3.9137394000 5.7787560000  
Pt 6.0044403000 5.9529010000 4.0363164000  

