&CONTROL
   calculation      = 'scf'
   restart_mode     = 'from_scratch'
   tprnfor          = .true.
   outdir           = './outdir'
   disk_io          = 'none'
   pseudo_dir       = './../pseudo'
/
&SYSTEM
   ibrav            = 0
   nat              = 32
   ntyp             = 1
   nbnd             = 346
   ecutwfc          = 70
   ecutrho          = 280
   occupations      = 'smearing'
   degauss          = 0.02
   smearing         = 'marzari-vanderbilt'
   input_dft        = 'PBE'
/
&ELECTRONS
   electron_maxstep = 200
   conv_thr         = 1e-06
   mixing_beta      = 0.1
   mixing_ndim      = 8
   diagonalization  = 'david'
/
&IONS
/
&CELL
/
&FCP
/
&RISM
/
ATOMIC_SPECIES
Pt 195.084 Pt_ONCV_PBE-1.2.upf

K_POINTS automatic
4 4 4  0 0 0

CELL_PARAMETERS angstrom
7.93365398677590 0.00000000000000 0.00000000000000
0.00000000000000 7.94594265462076 0.00000000000000
0.00000000000000 0.00000000000000 7.95059987237322

ATOMIC_POSITIONS angstrom
Pt 0.0040635067 0.0082734551 -0.0036508603  
Pt -0.0038406437 1.9799849309 1.9911954915  
Pt 1.9783763464 0.0088831877 1.9914994905  
Pt 1.9770843405 1.9875967432 -0.0010834250  
Pt -0.0074488136 -0.0092589337 3.9623421052  
Pt -0.0010257662 1.9951864436 5.9445758214  
Pt 1.9664590939 -0.0046841464 5.9527678111  
Pt 1.9712820046 1.9962082858 3.9691312693  
Pt 0.0089135817 3.9658082860 0.0068244184  
Pt -0.0041993511 5.9605839842 1.9925473037  
Pt 1.9619597535 3.9837116566 1.9873313136  
Pt 1.9650041170 5.9604288902 -0.0012898594  
Pt -0.0092816084 3.9796043236 3.9646903069  
Pt -0.0048877447 5.9666554724 5.9563497329  
Pt 1.9699399190 3.9789422821 5.9571973954  
Pt 1.9715169605 5.9558682512 3.9694669414  
Pt 3.9426373587 0.0002653007 -0.0003402635  
Pt 3.9328794156 1.9840034644 1.9807391244  
Pt 5.8978093637 0.0043735263 1.9784111546  
Pt 5.9030978581 1.9862978261 -0.0016835556  
Pt 3.9344276163 -0.0089647471 3.9758772067  
Pt 3.9292679143 1.9787159608 5.9605741344  
Pt 5.9068655973 0.0048812048 5.9456813865  
Pt 5.8979288175 1.9849553885 3.9683884342  
Pt 3.9362911859 3.9698348932 -0.0088040023  
Pt 3.9308180736 5.9644994311 1.9864923579  
Pt 5.8979078533 3.9738901795 1.9874877508  
Pt 5.9038864034 5.9569556259 0.0000302657  
Pt 3.9346642744 3.9769027135 3.9602676176  
Pt 3.9467933587 5.9538081187 5.9465466336  
Pt 5.9022906044 3.9710355077 5.9483802936  
Pt 5.9003152495 5.9667075717 3.9687342285  

