&CONTROL
   calculation      = 'scf'
   restart_mode     = 'from_scratch'
   tprnfor          = .true.
   outdir           = './outdir'
   disk_io          = 'none'
   pseudo_dir       = '/scratch/ch24d003/pseudo'
/
&SYSTEM
   ibrav            = 0
   nat              = 32
   ntyp             = 1
   nbnd             = 346
   ecutwfc          = 70
   ecutrho          = 280
   occupations      = 'smearing'
   degauss          = 0.02
   smearing         = 'marzari-vanderbilt'
   input_dft        = 'PBE'
/
&ELECTRONS
   electron_maxstep = 200
   conv_thr         = 1e-06
   mixing_beta      = 0.1
   mixing_ndim      = 8
   diagonalization  = 'david'
/
&IONS
/
&CELL
/
&FCP
/
&RISM
/
ATOMIC_SPECIES
Pt 195.084 Pt_ONCV_PBE-1.2.upf

K_POINTS automatic
4 4 4  0 0 0

CELL_PARAMETERS angstrom
7.89483400000000 0.00000000000000 0.00000000000000
0.00000000000000 7.87004400000000 0.00000000000000
0.00000000000000 0.00000000000000 8.01469200000000

ATOMIC_POSITIONS angstrom
Pt 7.8129582000 7.8695135000 7.9937770000  
Pt 7.8222560000 1.9279500000 2.1248329000  
Pt 1.8056408000 0.0019878717 2.0990875000  
Pt 1.9234774000 2.0683053000 0.1712607900  
Pt 7.8488610000 7.7888350000 4.0605183000  
Pt 0.0617389230 1.9497508000 5.8963227000  
Pt 2.1014533000 0.0386824350 6.0269910000  
Pt 1.9713982000 1.8913989000 3.9329765000  
Pt 0.0343145170 3.9467406000 7.8387390000  
Pt 7.8542240000 5.8729143000 2.0467381000  
Pt 1.9487462000 3.9996889000 2.0150387000  
Pt 2.0254860000 6.0053860000 7.9923000000  
Pt 0.0654781500 4.0211334000 3.9539080000  
Pt 0.1339984000 5.9332633000 5.9808650000  
Pt 2.0846434000 3.7979014000 5.9577336000  
Pt 2.0233862000 5.9014430000 4.0796270000  
Pt 3.9733474000 0.0281896400 0.0313869040  
Pt 3.9399810000 1.9439230000 2.0163240000  
Pt 5.9046187000 7.8003283000 1.8839561000  
Pt 5.9490500000 2.0586486000 0.1461712300  
Pt 3.9021310000 7.8546870000 3.9493742000  
Pt 3.9893980000 1.9170227000 5.9535174000  
Pt 5.9152775000 7.8078146000 6.0633326000  
Pt 6.0156950000 1.9659625000 3.9808502000  
Pt 3.8570392000 3.9216325000 0.0359831600  
Pt 3.8188663000 5.9461920000 1.9985300000  
Pt 5.9194010000 3.9667473000 2.0691016000  
Pt 5.8363748000 5.9313974000 0.0770544400  
Pt 3.9368804000 3.8194380000 4.0011873000  
Pt 4.0165530000 5.8565940000 5.9779816000  
Pt 5.8937000000 4.0124120000 5.9483657000  
Pt 5.9190893000 5.9293585000 3.9379940000  

