&CONTROL
   calculation      = 'scf'
   restart_mode     = 'from_scratch'
   tprnfor          = .true.
   outdir           = './outdir'
   disk_io          = 'none'
   pseudo_dir       = './../pseudo'
/
&SYSTEM
   ibrav            = 0
   nat              = 32
   ntyp             = 1
   nbnd             = 346
   ecutwfc          = 70
   ecutrho          = 280
   occupations      = 'smearing'
   degauss          = 0.02
   smearing         = 'marzari-vanderbilt'
   input_dft        = 'PBE'
/
&ELECTRONS
   electron_maxstep = 200
   conv_thr         = 1e-06
   mixing_beta      = 0.1
   mixing_ndim      = 8
   diagonalization  = 'david'
/
&IONS
/
&CELL
/
&FCP
/
&RISM
/
ATOMIC_SPECIES
Pt 195.084 Pt_ONCV_PBE-1.2.upf

K_POINTS automatic
4 4 4  0 0 0

CELL_PARAMETERS angstrom
8.02042810728829 0.00000000000000 0.00000000000000
0.00000000000000 7.89487278080432 0.00000000000000
0.00000000000000 0.00000000000000 7.94594938412263

ATOMIC_POSITIONS angstrom
Pt -0.0080685198 0.0047515583 -0.0006224834  
Pt -0.0004355829 1.9589815162 2.0082050119  
Pt 2.0080053777 -0.0049958367 2.0120415634  
Pt 1.9943019704 1.9604235942 0.0061424049  
Pt -0.0035180034 0.0014816698 4.0156196278  
Pt -0.0083214752 1.9558443194 6.0077288105  
Pt 1.9921029679 -0.0021205619 6.0018775958  
Pt 1.9936085264 1.9554959104 4.0051002933  
Pt -0.0035298281 3.9064055726 0.0061147340  
Pt -0.0057310934 5.8712652365 2.0084224053  
Pt 2.0075607268 3.9062935829 2.0125119543  
Pt 2.0031229788 5.8746481722 -0.0037174396  
Pt -0.0011280264 3.9164962211 4.0156945967  
Pt 0.0032709907 5.8672877914 6.0100703928  
Pt 2.0033549075 3.9090937993 6.0040160248  
Pt 2.0047209548 5.8756539658 3.9961629449  
Pt 4.0095278081 -0.0046430692 0.0054752218  
Pt 4.0006303063 1.9489393064 1.9997359803  
Pt 5.9975867405 0.0034256264 2.0115748079  
Pt 6.0047989210 1.9635487751 -0.0082989989  
Pt 4.0069882383 0.0030248723 4.0070850219  
Pt 4.0053653690 1.9482116610 6.0156012803  
Pt 6.0036689243 0.0087073410 6.0083075001  
Pt 6.0098672857 1.9628776675 4.0010285443  
Pt 4.0039329508 3.9130279015 -0.0014131402  
Pt 4.0108576489 5.8641669533 2.0071565739  
Pt 5.9987818233 3.9120561032 2.0123262660  
Pt 6.0014281140 5.8819341235 0.0098841611  
Pt 4.0062584428 3.9135396442 4.0017791326  
Pt 4.0068893843 5.8701224222 6.0168971193  
Pt 6.0128003698 3.9098538700 6.0095180921  
Pt 6.0049445622 5.8676099273 4.0053471417  

