&CONTROL
   calculation      = 'scf'
   restart_mode     = 'from_scratch'
   tprnfor          = .true.
   outdir           = './outdir'
   disk_io          = 'none'
   pseudo_dir       = './../pseudo'
/
&SYSTEM
   ibrav            = 0
   nat              = 32
   ntyp             = 1
   nbnd             = 346
   ecutwfc          = 70
   ecutrho          = 280
   occupations      = 'smearing'
   degauss          = 0.02
   smearing         = 'marzari-vanderbilt'
   input_dft        = 'PBE'
/
&ELECTRONS
   electron_maxstep = 200
   conv_thr         = 1e-06
   mixing_beta      = 0.1
   mixing_ndim      = 8
   diagonalization  = 'david'
/
&IONS
/
&CELL
/
&FCP
/
&RISM
/
ATOMIC_SPECIES
Pt 195.084 Pt_ONCV_PBE-1.2.upf

K_POINTS automatic
4 4 4  0 0 0

CELL_PARAMETERS angstrom
7.90779876393446 0.00000000000000 0.00000000000000
0.00000000000000 7.90792609478391 0.00000000000000
0.00000000000000 0.00000000000000 8.02314154133712

ATOMIC_POSITIONS angstrom
Pt -0.0088122538 0.0055495745 0.0007783229  
Pt 0.0002328093 1.9921599706 1.9875020790  
Pt 2.0012618980 -0.0089406456 2.0043307326  
Pt 1.9934124433 1.9921585680 -0.0013239682  
Pt -0.0008182805 -0.0008635420 3.9897714210  
Pt 0.0052724783 1.9821492478 5.9844481582  
Pt 1.9824548147 0.0086238302 5.9838919943  
Pt 1.9940231199 1.9896591837 3.9942339046  
Pt 0.0053125140 3.9726358537 -0.0099905565  
Pt -0.0009987156 5.9768550323 1.9959844992  
Pt 1.9852067917 3.9864741816 1.9887907578  
Pt 1.9887741764 5.9610212734 -0.0086991779  
Pt 0.0067291165 3.9694386378 3.9982476666  
Pt 0.0029863505 5.9598691774 5.9847508248  
Pt 1.9964035004 3.9731796131 5.9832825510  
Pt 2.0012583802 5.9655322573 3.9913656807  
Pt 3.9825798428 0.0084982690 -0.0038577256  
Pt 3.9742781017 1.9939665556 1.9867611739  
Pt 5.9681732993 -0.0083613389 2.0024668452  
Pt 5.9671664239 1.9937934536 -0.0008483205  
Pt 3.9851736380 -0.0079388865 3.9893321874  
Pt 3.9857094221 1.9836472609 5.9941069053  
Pt 5.9830182149 -0.0027122390 5.9884032273  
Pt 5.9762721212 1.9959137616 3.9993579423  
Pt 3.9734719522 3.9798350845 -0.0069013150  
Pt 3.9841009297 5.9665730051 2.0001321694  
Pt 5.9707324200 3.9785830337 1.9934408440  
Pt 5.9757850556 5.9635966943 -0.0027352191  
Pt 3.9843676622 3.9756046342 3.9924882427  
Pt 3.9868162527 5.9602947970 5.9849406947  
Pt 5.9769129410 3.9729482205 5.9974395529  
Pt 5.9808452283 5.9679559936 3.9868708431  

