&CONTROL
   calculation      = 'scf'
   restart_mode     = 'from_scratch'
   tprnfor          = .true.
   outdir           = './outdir'
   disk_io          = 'none'
   pseudo_dir       = './../pseudo'
/
&SYSTEM
   ibrav            = 0
   nat              = 32
   ntyp             = 1
   nbnd             = 346
   ecutwfc          = 70
   ecutrho          = 280
   occupations      = 'smearing'
   degauss          = 0.02
   smearing         = 'marzari-vanderbilt'
   input_dft        = 'PBE'
/
&ELECTRONS
   electron_maxstep = 200
   conv_thr         = 1e-06
   mixing_beta      = 0.1
   mixing_ndim      = 8
   diagonalization  = 'david'
/
&IONS
/
&CELL
/
&FCP
/
&RISM
/
ATOMIC_SPECIES
Pt 195.084 Pt_ONCV_PBE-1.2.upf

K_POINTS automatic
4 4 4  0 0 0

CELL_PARAMETERS angstrom
7.92376549549173 0.00000000000000 0.00000000000000
0.00000000000000 7.97625518609489 0.00000000000000
0.00000000000000 0.00000000000000 7.87754704115006

ATOMIC_POSITIONS angstrom
Pt 0.0008997822 -0.0048828220 -0.0086179364  
Pt 0.0018502104 2.0072391793 1.9850877916  
Pt 1.9871460261 0.0008819164 1.9796499387  
Pt 1.9729086856 1.9890078816 0.0039147465  
Pt -0.0059071979 -0.0034595721 3.9722350862  
Pt -0.0010748984 2.0043755283 5.9581280597  
Pt 1.9681904752 0.0092496432 5.9708664656  
Pt 1.9798326088 1.9926095467 3.9823301529  
Pt 0.0066013173 3.9950268913 0.0011245863  
Pt -0.0003625911 6.0041286360 1.9871490606  
Pt 1.9784593002 4.0006582998 1.9785160192  
Pt 1.9753336002 5.9920594019 0.0018926587  
Pt -0.0052018581 3.9883480643 3.9664507046  
Pt 0.0045277961 5.9868653312 5.9703513536  
Pt 1.9699349902 3.9958163720 5.9604876479  
Pt 1.9827072424 5.9966109652 3.9816686598  
Pt 3.9500840595 0.0076499747 0.0096501429  
Pt 3.9512569901 1.9977721078 1.9915530622  
Pt 5.9362417570 0.0035850469 1.9961947071  
Pt 5.9311384898 1.9900776203 0.0060339529  
Pt 3.9505874524 0.0090530782 3.9659288716  
Pt 3.9650745899 1.9925132877 5.9637118244  
Pt 5.9313168496 -0.0074694906 5.9525437389  
Pt 5.9287730028 1.9897432185 3.9835818421  
Pt 3.9454938049 4.0067672934 -0.0098146579  
Pt 3.9486430248 6.0025806374 1.9807401245  
Pt 5.9319631054 3.9884895867 1.9877855206  
Pt 5.9236842835 5.9984902554 -0.0047031851  
Pt 3.9476412886 4.0073370774 3.9783914638  
Pt 3.9552618149 5.9907080489 5.9705922804  
Pt 5.9297767538 4.0005847996 5.9583124615  
Pt 5.9235858950 5.9917790142 3.9781994436  

