&CONTROL
   calculation      = 'scf'
   restart_mode     = 'from_scratch'
   tprnfor          = .true.
   outdir           = './outdir'
   disk_io          = 'none'
   pseudo_dir       = './../pseudo'
/
&SYSTEM
   ibrav            = 0
   nat              = 32
   ntyp             = 1
   nbnd             = 346
   ecutwfc          = 70
   ecutrho          = 280
   occupations      = 'smearing'
   degauss          = 0.02
   smearing         = 'marzari-vanderbilt'
   input_dft        = 'PBE'
/
&ELECTRONS
   electron_maxstep = 200
   conv_thr         = 1e-06
   mixing_beta      = 0.1
   mixing_ndim      = 8
   diagonalization  = 'david'
/
&IONS
/
&CELL
/
&FCP
/
&RISM
/
ATOMIC_SPECIES
Pt 195.084 Pt_ONCV_PBE-1.2.upf

K_POINTS automatic
4 4 4  0 0 0

CELL_PARAMETERS angstrom
8.02279784679447 0.00000000000000 0.00000000000000
0.00000000000000 7.89252662088091 0.00000000000000
0.00000000000000 0.00000000000000 7.88640491858794

ATOMIC_POSITIONS angstrom
Pt 0.0092806536 -0.0048357085 0.0003373455  
Pt 0.0035192097 1.9851809096 1.9621215783  
Pt 2.0202647749 -0.0005592463 1.9696457925  
Pt 2.0230189267 1.9728148223 0.0000481834  
Pt 0.0014619529 0.0015081382 3.9427125934  
Pt -0.0090520234 1.9674511062 5.9069193034  
Pt 2.0161512595 -0.0084348536 5.9019176189  
Pt 2.0250217646 1.9762286560 3.9447338907  
Pt -0.0013150832 3.9621287930 -0.0039162494  
Pt -0.0054394383 5.9412876314 1.9707050899  
Pt 2.0237431244 3.9558297687 1.9668285321  
Pt 2.0101400384 5.9370510395 -0.0057660442  
Pt 0.0050589266 3.9606752759 3.9295838353  
Pt -0.0048298706 5.9388806728 5.9030958908  
Pt 2.0149166569 3.9626450889 5.9147925534  
Pt 2.0233543106 5.9380870490 3.9349204191  
Pt 4.0460128292 -0.0031919162 0.0042924187  
Pt 4.0343656646 1.9793417575 1.9671502336  
Pt 6.0488926201 -0.0093608532 1.9605954372  
Pt 6.0590933895 1.9767265029 0.0068713936  
Pt 4.0268742637 0.0055318994 3.9392952733  
Pt 4.0415293577 1.9780441697 5.9141588140  
Pt 6.0630028822 0.0050592156 5.9010562920  
Pt 6.0575516034 1.9765927422 3.9404321654  
Pt 4.0274630127 3.9484588025 0.0051025043  
Pt 4.0333999913 5.9400879139 1.9608589670  
Pt 6.0507461967 3.9636200077 1.9692272121  
Pt 6.0469043204 5.9307199901 -0.0033013464  
Pt 4.0281247972 3.9526550354 3.9382040665  
Pt 4.0464052967 5.9354085626 5.9042622866  
Pt 6.0457858746 3.9603111058 5.9124231665  
Pt 6.0470227356 5.9364002767 3.9336593881  

