&CONTROL
   calculation      = 'scf'
   restart_mode     = 'from_scratch'
   tprnfor          = .true.
   outdir           = './outdir'
   disk_io          = 'none'
   pseudo_dir       = '/scratch/ch24d003/pseudo'
/
&SYSTEM
   ibrav            = 0
   nat              = 32
   ntyp             = 1
   nbnd             = 346
   ecutwfc          = 70
   ecutrho          = 280
   occupations      = 'smearing'
   degauss          = 0.02
   smearing         = 'marzari-vanderbilt'
   input_dft        = 'PBE'
/
&ELECTRONS
   electron_maxstep = 200
   conv_thr         = 1e-06
   mixing_beta      = 0.1
   mixing_ndim      = 8
   diagonalization  = 'david'
/
&IONS
/
&CELL
/
&FCP
/
&RISM
/
ATOMIC_SPECIES
Pt 195.084 Pt_ONCV_PBE-1.2.upf

K_POINTS automatic
4 4 4  0 0 0

CELL_PARAMETERS angstrom
7.89483400000000 0.00000000000000 0.00000000000000
0.00000000000000 7.87004400000000 0.00000000000000
0.00000000000000 0.00000000000000 8.01469200000000

ATOMIC_POSITIONS angstrom
Pt 0.0577706600 7.7750670000 0.0903268160  
Pt 0.0053183553 1.9517062000 1.9403105000  
Pt 2.0285995000 7.8444276000 2.0908256000  
Pt 1.9320233000 2.0555692000 7.9898868000  
Pt 0.0280097970 7.8698196000 3.8939820000  
Pt 7.8194150000 1.9130325000 5.9168463000  
Pt 1.9344803000 7.8636880000 6.0582676000  
Pt 1.9113731000 1.9690399000 4.1395144000  
Pt 7.8935876000 3.8182745000 7.8870277000  
Pt 7.8770220000 5.8846383000 1.9922278000  
Pt 1.9136374000 4.0187964000 1.9746832000  
Pt 2.0264018000 5.8473682000 7.9918290000  
Pt 7.8026667000 3.9384350000 4.0859613000  
Pt 0.1420401800 5.9189910000 6.0544014000  
Pt 2.0229108000 3.9515357000 6.0082097000  
Pt 1.9837294000 5.7415690000 3.9505599000  
Pt 3.8651097000 7.8528570000 7.9474797000  
Pt 3.8262327000 1.9740460000 2.1162520000  
Pt 5.9785166000 0.0126620100 1.8551757000  
Pt 5.8811893000 2.0265598000 7.9745927000  
Pt 3.8832488000 0.0734366700 4.0554957000  
Pt 3.9926999000 1.9018860000 5.9973035000  
Pt 5.9195848000 0.0062359343 5.9725830000  
Pt 5.8884373000 2.0115092000 3.9373490000  
Pt 3.9811783000 3.9221356000 0.1226090040  
Pt 3.9661750000 5.9462934000 2.0484724000  
Pt 5.9175660000 3.9674664000 1.9564391000  
Pt 5.8984065000 6.0143010000 7.9503130000  
Pt 3.9897416000 3.8917613000 4.1197180000  
Pt 4.1370590000 5.9262385000 6.0226755000  
Pt 5.9035687000 3.8602378000 6.1356630000  
Pt 5.8977640000 6.0256596000 4.0089235000  

