&CONTROL
   calculation      = 'scf'
   restart_mode     = 'from_scratch'
   tprnfor          = .true.
   outdir           = './outdir'
   disk_io          = 'none'
   pseudo_dir       = '/scratch/ch24d003/pseudo'
/
&SYSTEM
   ibrav            = 0
   nat              = 32
   ntyp             = 1
   nbnd             = 346
   ecutwfc          = 70
   ecutrho          = 280
   occupations      = 'smearing'
   degauss          = 0.02
   smearing         = 'marzari-vanderbilt'
   input_dft        = 'PBE'
/
&ELECTRONS
   electron_maxstep = 200
   conv_thr         = 1e-06
   mixing_beta      = 0.1
   mixing_ndim      = 8
   diagonalization  = 'david'
/
&IONS
/
&CELL
/
&FCP
/
&RISM
/
ATOMIC_SPECIES
Pt 195.084 Pt_ONCV_PBE-1.2.upf

K_POINTS automatic
4 4 4  0 0 0

CELL_PARAMETERS angstrom
7.89483400000000 0.00000000000000 0.00000000000000
0.00000000000000 7.87004400000000 0.00000000000000
0.00000000000000 0.00000000000000 8.01469200000000

ATOMIC_POSITIONS angstrom
Pt 7.8149962000 7.8273060000 7.8947797000  
Pt 7.7646050000 1.9138676000 2.0648540000  
Pt 1.9386878000 7.8399963000 1.8844094000  
Pt 1.9392875000 2.0666971000 0.1657140000  
Pt 0.0440518070 7.8311844000 3.9527745000  
Pt 0.0775915460 1.9895012000 6.0103583000  
Pt 2.0136998000 0.0859145150 5.9805927000  
Pt 1.9915423000 1.9662999000 3.9522953000  
Pt 0.0639947800 3.9235270000 7.9622273000  
Pt 7.8658790000 5.8371267000 1.8378664000  
Pt 1.9840626000 4.0094943000 2.0447512000  
Pt 2.0537589000 5.7517410000 0.0123880610  
Pt 0.0384470520 3.8102055000 3.9733686000  
Pt 7.7513733000 5.8348430000 6.0008850000  
Pt 2.0064306000 4.0148134000 5.9807653000  
Pt 1.9566953000 5.9199200000 4.0689150000  
Pt 4.0886984000 0.0273888820 0.0260098450  
Pt 3.9986506000 1.9622852000 1.9904158000  
Pt 5.8878884000 0.0174898800 2.0162890000  
Pt 5.9594026000 1.9848300000 7.9647410000  
Pt 3.7727954000 0.0559836180 4.0206630000  
Pt 3.9769387000 2.0398890000 6.0235615000  
Pt 5.7962685000 7.8047140000 5.9385140000  
Pt 5.9009540000 1.9377782000 3.8638740000  
Pt 3.9869707000 3.9474280000 0.1081551100  
Pt 3.9307806000 5.9785657000 2.0920353000  
Pt 5.9149594000 4.0473000000 2.0161700000  
Pt 5.8895216000 5.9606310000 0.0902261700  
Pt 4.0081550000 3.9730113000 4.0342464000  
Pt 3.9231684000 5.9433827000 6.1552753000  
Pt 5.9658856000 3.8250704000 6.0496216000  
Pt 5.9993224000 5.7770133000 4.0650826000  

