&CONTROL
   calculation      = 'scf'
   restart_mode     = 'from_scratch'
   tprnfor          = .true.
   outdir           = './outdir'
   disk_io          = 'none'
   pseudo_dir       = '/scratch/ch24d003/pseudo'
/
&SYSTEM
   ibrav            = 0
   nat              = 32
   ntyp             = 1
   nbnd             = 346
   ecutwfc          = 70
   ecutrho          = 280
   occupations      = 'smearing'
   degauss          = 0.02
   smearing         = 'marzari-vanderbilt'
   input_dft        = 'PBE'
/
&ELECTRONS
   electron_maxstep = 200
   conv_thr         = 1e-06
   mixing_beta      = 0.1
   mixing_ndim      = 8
   diagonalization  = 'david'
/
&IONS
/
&CELL
/
&FCP
/
&RISM
/
ATOMIC_SPECIES
Pt 195.084 Pt_ONCV_PBE-1.2.upf

K_POINTS automatic
4 4 4  0 0 0

CELL_PARAMETERS angstrom
7.89483400000000 0.00000000000000 0.00000000000000
0.00000000000000 7.87004400000000 0.00000000000000
0.00000000000000 0.00000000000000 8.01469200000000

ATOMIC_POSITIONS angstrom
Pt 0.0652483250 0.1273748600 0.0293347900  
Pt 7.8366800000 2.0808630000 2.1138456000  
Pt 1.9740990000 7.7965574000 1.9420168000  
Pt 2.0456865000 2.0308068000 7.9975348000  
Pt 7.8324084000 7.7910430000 3.9539660000  
Pt 0.0174728540 2.0184793000 6.0409203000  
Pt 1.9366362000 7.8227380000 6.0342755000  
Pt 1.9112391000 2.0099392000 3.9349825000  
Pt 0.0750915860 4.0504413000 0.0455526750  
Pt 0.1641103200 5.9476240000 2.0457745000  
Pt 1.8880125000 3.9007420000 2.0457306000  
Pt 2.1025543000 5.9538110000 7.9729815000  
Pt 0.0714567450 3.9576270000 4.0460140000  
Pt 7.8477590000 5.8806760000 6.0528054000  
Pt 1.9878002000 3.8752384000 5.9309090000  
Pt 2.0023038000 5.9365535000 3.9854116000  
Pt 3.9293063000 7.8511953000 0.0253867660  
Pt 3.8256210000 1.9156812000 2.0395935000  
Pt 5.8784320000 0.0062371210 1.9639930000  
Pt 5.9249554000 1.9909561000 0.0445281940  
Pt 3.9388473000 7.7226443000 3.9674637000  
Pt 3.9973104000 1.8576150000 5.9440840000  
Pt 5.9255930000 0.0622306600 6.1146092000  
Pt 5.8032580000 1.9370185000 4.0158978000  
Pt 3.9151938000 3.8152270000 8.0039250000  
Pt 3.9998640000 5.6353035000 1.9873666000  
Pt 5.8916183000 4.0677905000 1.8809497000  
Pt 5.8785057000 5.9781780000 0.0565390440  
Pt 3.9641110000 3.8778990000 3.9407600000  
Pt 4.1111574000 5.9772005000 6.0703970000  
Pt 5.8053737000 3.9770536000 5.9793444000  
Pt 5.8629240000 5.9224977000 4.0349330000  

