&CONTROL
   calculation      = 'scf'
   restart_mode     = 'from_scratch'
   tprnfor          = .true.
   outdir           = './outdir'
   disk_io          = 'none'
   pseudo_dir       = '/scratch/ch24d003/pseudo'
/
&SYSTEM
   ibrav            = 0
   nat              = 32
   ntyp             = 1
   nbnd             = 346
   ecutwfc          = 70
   ecutrho          = 280
   occupations      = 'smearing'
   degauss          = 0.02
   smearing         = 'marzari-vanderbilt'
   input_dft        = 'PBE'
/
&ELECTRONS
   electron_maxstep = 200
   conv_thr         = 1e-06
   mixing_beta      = 0.1
   mixing_ndim      = 8
   diagonalization  = 'david'
/
&IONS
/
&CELL
/
&FCP
/
&RISM
/
ATOMIC_SPECIES
Pt 195.084 Pt_ONCV_PBE-1.2.upf

K_POINTS automatic
4 4 4  0 0 0

CELL_PARAMETERS angstrom
7.89483400000000 0.00000000000000 0.00000000000000
0.00000000000000 7.87004400000000 0.00000000000000
0.00000000000000 0.00000000000000 8.01469200000000

ATOMIC_POSITIONS angstrom
Pt 0.0274862240 7.8366940000 7.8730740000  
Pt 0.0247566070 1.9864396000 1.8504160000  
Pt 2.0329620000 7.8175150000 2.0474145000  
Pt 2.0869490000 1.9724665000 8.0083050000  
Pt 0.0550951620 7.7555010000 3.8995965000  
Pt 7.7724600000 2.0353384000 5.9463673000  
Pt 1.9526519000 0.0564010800 5.8957753000  
Pt 2.0456967000 2.0386097000 3.8386440000  
Pt 7.7902493000 3.8853116000 7.9582420000  
Pt 7.8690090000 5.9699383000 1.9077900000  
Pt 1.9208962000 4.0136410000 2.0569513000  
Pt 1.9638419000 5.8992095000 0.0703518000  
Pt 7.8396873000 4.0039940000 3.9205413000  
Pt 0.1129667760 5.7804713000 6.0304580000  
Pt 1.8720034000 3.7190742000 6.0035690000  
Pt 1.9438045000 5.8311110000 4.0844520000  
Pt 3.9845214000 0.0594761520 0.0884584860  
Pt 4.1069884000 2.0326364000 1.9982901000  
Pt 5.8926090000 7.7924333000 2.1326670000  
Pt 5.8588640000 1.9284922000 0.0017605996  
Pt 3.9636252000 7.8154445000 4.0550840000  
Pt 4.0248723000 2.0101510000 6.1118210000  
Pt 5.9551720000 0.0802253400 6.0023875000  
Pt 5.9583106000 1.8767700000 3.9624934000  
Pt 3.9871323000 3.9084833000 0.2051065900  
Pt 3.8928866000 5.9255204000 1.9759381000  
Pt 5.9708486000 3.9179149000 2.0903525000  
Pt 5.8691680000 5.9780280000 7.9723296000  
Pt 4.0123950000 3.9249384000 4.0537453000  
Pt 3.8358061000 5.9212193000 6.0614700000  
Pt 5.8188105000 4.0360436000 6.0551550000  
Pt 5.8629375000 5.9657510000 4.0975137000  

