&CONTROL
   calculation      = 'scf'
   restart_mode     = 'from_scratch'
   tprnfor          = .true.
   outdir           = './outdir'
   disk_io          = 'none'
   pseudo_dir       = './../pseudo'
/
&SYSTEM
   ibrav            = 0
   nat              = 32
   ntyp             = 1
   nbnd             = 346
   ecutwfc          = 70
   ecutrho          = 280
   occupations      = 'smearing'
   degauss          = 0.02
   smearing         = 'marzari-vanderbilt'
   input_dft        = 'PBE'
/
&ELECTRONS
   electron_maxstep = 200
   conv_thr         = 1e-06
   mixing_beta      = 0.1
   mixing_ndim      = 8
   diagonalization  = 'david'
/
&IONS
/
&CELL
/
&FCP
/
&RISM
/
ATOMIC_SPECIES
Pt 195.084 Pt_ONCV_PBE-1.2.upf

K_POINTS automatic
4 4 4  0 0 0

CELL_PARAMETERS angstrom
7.98691821813014 0.00000000000000 0.00000000000000
0.00000000000000 7.98925830630439 0.00000000000000
0.00000000000000 0.00000000000000 8.01066458203294

ATOMIC_POSITIONS angstrom
Pt 0.0048052342 -0.0050884500 0.0061700322  
Pt -0.0065934607 2.0057233725 1.9896200019  
Pt 1.9914096289 -0.0019832676 1.9896430970  
Pt 1.9887554153 2.0200574011 0.0061130845  
Pt 0.0079305596 0.0085702555 3.9830941436  
Pt 0.0035546767 2.0183238488 5.9655608617  
Pt 1.9808992816 0.0038115435 5.9765603353  
Pt 1.9807291477 2.0065580300 3.9779813979  
Pt 0.0003004017 4.0257206280 0.0093166487  
Pt 0.0068634642 6.0357243809 1.9856871781  
Pt 1.9801311324 4.0274459128 1.9888603946  
Pt 1.9939638598 6.0376568466 -0.0058010653  
Pt -0.0044313972 4.0338212823 3.9736790990  
Pt 0.0087076522 6.0396448962 5.9663201156  
Pt 1.9832970486 4.0354462885 5.9816979895  
Pt 1.9840191388 6.0445874568 3.9819074286  
Pt 3.9634279404 0.0070530057 -0.0047323061  
Pt 3.9731756790 2.0117548848 1.9915965165  
Pt 5.9564513182 0.0037714431 1.9987926594  
Pt 5.9629777359 2.0057179703 -0.0028004458  
Pt 3.9677409031 0.0020625994 3.9906573872  
Pt 3.9775506599 2.0106661391 5.9636219323  
Pt 5.9529538585 -0.0003215240 5.9645655675  
Pt 5.9651028307 2.0184182987 3.9876032162  
Pt 3.9661496874 4.0381809993 -0.0028032757  
Pt 3.9714226801 6.0379208504 1.9883060975  
Pt 5.9562299173 4.0300605268 1.9974419212  
Pt 5.9638364141 6.0394161393 0.0038784365  
Pt 3.9724461525 4.0375287002 3.9883032154  
Pt 3.9772203006 6.0446645630 5.9656694830  
Pt 5.9599877281 4.0310657859 5.9683223188  
Pt 5.9672692611 6.0438220751 3.9888292193  

