&CONTROL
   calculation      = 'scf'
   restart_mode     = 'from_scratch'
   tprnfor          = .true.
   outdir           = './outdir'
   disk_io          = 'none'
   pseudo_dir       = './../pseudo'
/
&SYSTEM
   ibrav            = 0
   nat              = 32
   ntyp             = 1
   nbnd             = 346
   ecutwfc          = 70
   ecutrho          = 280
   occupations      = 'smearing'
   degauss          = 0.02
   smearing         = 'marzari-vanderbilt'
   input_dft        = 'PBE'
/
&ELECTRONS
   electron_maxstep = 200
   conv_thr         = 1e-06
   mixing_beta      = 0.1
   mixing_ndim      = 8
   diagonalization  = 'david'
/
&IONS
/
&CELL
/
&FCP
/
&RISM
/
ATOMIC_SPECIES
Pt 195.084 Pt_ONCV_PBE-1.2.upf

K_POINTS automatic
4 4 4  0 0 0

CELL_PARAMETERS angstrom
7.89563856044901 0.00000000000000 0.00000000000000
0.00000000000000 7.92812461279190 0.00000000000000
0.00000000000000 0.00000000000000 7.95598945412166

ATOMIC_POSITIONS angstrom
Pt 0.0069155246 -0.0010716997 -0.0010291527  
Pt 0.0043510219 2.0029223074 1.9865762799  
Pt 1.9628128834 -0.0036490583 2.0063710126  
Pt 1.9519658355 1.9962289252 0.0027999796  
Pt 0.0036293322 0.0038943333 4.0021575025  
Pt -0.0067920154 1.9881722646 5.9808867073  
Pt 1.9472059864 -0.0005049777 5.9876843163  
Pt 1.9522598315 1.9972797403 3.9849684167  
Pt -0.0017466147 3.9849797296 0.0074347514  
Pt 0.0083138422 5.9791543028 2.0007489834  
Pt 1.9528724961 3.9794249992 1.9960017641  
Pt 1.9602700971 5.9814732281 0.0087940869  
Pt -0.0065407180 3.9892006229 3.9838379785  
Pt 0.0008234513 5.9794256880 5.9855949219  
Pt 1.9540283072 3.9805755733 5.9969655380  
Pt 1.9553915537 5.9854652028 3.9955351105  
Pt 3.9213969948 0.0018473704 -0.0000899302  
Pt 3.9111619866 2.0007615716 1.9904740953  
Pt 5.8596366254 0.0081172759 1.9972424830  
Pt 5.8634826876 1.9960288866 0.0080179434  
Pt 3.9112069561 -0.0002990196 3.9902805899  
Pt 3.9054678157 1.9864391021 5.9874186985  
Pt 5.8747559583 -0.0077883669 5.9937412661  
Pt 5.8730578859 1.9938662881 3.9828830147  
Pt 3.9171980550 3.9981729979 0.0007264111  
Pt 3.9127010378 5.9884328306 1.9914951544  
Pt 5.8741187428 3.9904287120 1.9954854791  
Pt 5.8728100433 5.9908293133 0.0057454353  
Pt 3.9196445540 3.9932464123 3.9835921831  
Pt 3.9145807002 5.9924072568 5.9936589447  
Pt 5.8682871591 3.9827116423 5.9903292394  
Pt 5.8682489330 5.9744080620 3.9916496300  

