&CONTROL
   calculation      = 'scf'
   restart_mode     = 'from_scratch'
   tprnfor          = .true.
   outdir           = './outdir'
   disk_io          = 'none'
   pseudo_dir       = './../pseudo'
/
&SYSTEM
   ibrav            = 0
   nat              = 32
   ntyp             = 1
   nbnd             = 346
   ecutwfc          = 70
   ecutrho          = 280
   occupations      = 'smearing'
   degauss          = 0.02
   smearing         = 'marzari-vanderbilt'
   input_dft        = 'PBE'
/
&ELECTRONS
   electron_maxstep = 200
   conv_thr         = 1e-06
   mixing_beta      = 0.1
   mixing_ndim      = 8
   diagonalization  = 'david'
/
&IONS
/
&CELL
/
&FCP
/
&RISM
/
ATOMIC_SPECIES
Pt 195.084 Pt_ONCV_PBE-1.2.upf

K_POINTS automatic
4 4 4  0 0 0

CELL_PARAMETERS angstrom
7.92108145024403 0.00000000000000 0.00000000000000
0.00000000000000 7.87504955334646 0.00000000000000
0.00000000000000 0.00000000000000 7.87937766929228

ATOMIC_POSITIONS angstrom
Pt -0.0022684606 -0.0064073736 -0.0071033023  
Pt 0.0070419256 1.9523505011 1.9517712788  
Pt 1.9976450679 0.0014066814 1.9583550626  
Pt 2.0000792513 1.9537017768 0.0040482015  
Pt -0.0049926270 0.0046306445 3.9063886168  
Pt -0.0093925146 1.9532132719 5.8501304332  
Pt 1.9907177435 -0.0084958111 5.8452563254  
Pt 2.0043733145 1.9531959199 3.8980212715  
Pt -0.0011405197 3.9076751190 -0.0026800738  
Pt 0.0005696082 5.8789679339 1.9573713556  
Pt 1.9874392371 3.9121987105 1.9501707391  
Pt 2.0021894500 5.8708277447 0.0046198524  
Pt 0.0047258080 3.9200791518 3.9002085567  
Pt -0.0054785863 5.8671636928 5.8492352708  
Pt 2.0030890192 3.9105758706 5.8529763332  
Pt 1.9898565219 5.8776266403 3.9018223114  
Pt 3.9825867830 -0.0038677786 0.0060372683  
Pt 3.9824026177 1.9562690469 1.9512781321  
Pt 5.9911102625 -0.0024509989 1.9479685522  
Pt 5.9788535593 1.9609129817 -0.0085446136  
Pt 3.9979699666 0.0086690407 3.8986209300  
Pt 3.9830406381 1.9582813666 5.8608089192  
Pt 5.9874719126 -0.0047225363 5.8439612201  
Pt 5.9849719369 1.9573840094 3.9022112258  
Pt 3.9967237009 3.9140150482 -0.0081869709  
Pt 3.9959243742 5.8656132400 1.9467042049  
Pt 5.9811422910 3.9053374651 1.9479172320  
Pt 5.9932067843 5.8752437928 0.0041651642  
Pt 3.9867929741 3.9061359771 3.9045136471  
Pt 3.9980675995 5.8733081668 5.8505953142  
Pt 5.9965347957 3.9129846792 5.8447929770  
Pt 5.9834467980 5.8781832380 3.8936819054  

