&CONTROL
   calculation      = 'scf'
   restart_mode     = 'from_scratch'
   tprnfor          = .true.
   outdir           = './outdir'
   disk_io          = 'none'
   pseudo_dir       = '/scratch/ch24d003/pseudo'
/
&SYSTEM
   ibrav            = 0
   nat              = 32
   ntyp             = 1
   nbnd             = 346
   ecutwfc          = 70
   ecutrho          = 280
   occupations      = 'smearing'
   degauss          = 0.02
   smearing         = 'marzari-vanderbilt'
   input_dft        = 'PBE'
/
&ELECTRONS
   electron_maxstep = 200
   conv_thr         = 1e-06
   mixing_beta      = 0.1
   mixing_ndim      = 8
   diagonalization  = 'david'
/
&IONS
/
&CELL
/
&FCP
/
&RISM
/
ATOMIC_SPECIES
Pt 195.084 Pt_ONCV_PBE-1.2.upf

K_POINTS automatic
4 4 4  0 0 0

CELL_PARAMETERS angstrom
7.89483400000000 0.00000000000000 0.00000000000000
0.00000000000000 7.87004400000000 0.00000000000000
0.00000000000000 0.00000000000000 8.01469200000000

ATOMIC_POSITIONS angstrom
Pt 0.0626883700 0.0525376100 0.0468893900  
Pt 7.8179650000 1.9829775000 1.9910754000  
Pt 2.0365298000 0.0798469200 1.9886146000  
Pt 1.9867618000 2.0392800000 7.9905424000  
Pt 0.0034106618 7.8283980000 4.0470085000  
Pt 7.7901483000 1.9470677000 6.0322870000  
Pt 1.9712344000 7.8356266000 5.9715800000  
Pt 1.9031916000 1.8699107000 4.1418800000  
Pt 7.8931580000 3.8130116000 0.0259636530  
Pt 0.1250241700 5.8633020000 1.9658993000  
Pt 1.9753616000 3.9475904000 2.0709930000  
Pt 1.9983022000 5.8621125000 7.9510074000  
Pt 0.0288246760 3.9828656000 4.0779285000  
Pt 0.0387242200 5.9105353000 6.1106480000  
Pt 1.9577912000 3.8583484000 6.0513010000  
Pt 1.9539298000 5.8916000000 4.0302060000  
Pt 3.8969357000 7.8169370000 7.9471216000  
Pt 3.9662352000 2.1016142000 1.9327844000  
Pt 5.8596134000 7.8040210000 2.0107272000  
Pt 5.9233165000 1.9647969000 7.9219690000  
Pt 3.9440582000 0.0148352140 3.9887714000  
Pt 4.0400934000 1.9420074000 6.0153427000  
Pt 5.8586464000 7.7885375000 5.9175973000  
Pt 5.8856240000 1.9288905000 3.9388354000  
Pt 3.8846874000 3.9695290000 7.8975916000  
Pt 3.8681912000 5.9001937000 2.0456214000  
Pt 5.8443093000 3.9615169000 1.9513124000  
Pt 5.8624406000 5.9338690000 0.0490296150  
Pt 3.9294665000 3.9533327000 4.1473870000  
Pt 4.0258164000 5.9648270000 6.0535880000  
Pt 6.0309890000 4.0517720000 5.9540734000  
Pt 6.0471616000 5.9135513000 4.0056343000  

