&CONTROL
   calculation      = 'scf'
   restart_mode     = 'from_scratch'
   tprnfor          = .true.
   outdir           = './outdir'
   disk_io          = 'none'
   pseudo_dir       = '/scratch/ch24d003/pseudo'
/
&SYSTEM
   ibrav            = 0
   nat              = 32
   ntyp             = 1
   nbnd             = 346
   ecutwfc          = 70
   ecutrho          = 280
   occupations      = 'smearing'
   degauss          = 0.02
   smearing         = 'marzari-vanderbilt'
   input_dft        = 'PBE'
/
&ELECTRONS
   electron_maxstep = 200
   conv_thr         = 1e-06
   mixing_beta      = 0.1
   mixing_ndim      = 8
   diagonalization  = 'david'
/
&IONS
/
&CELL
/
&FCP
/
&RISM
/
ATOMIC_SPECIES
Pt 195.084 Pt_ONCV_PBE-1.2.upf

K_POINTS automatic
4 4 4  0 0 0

CELL_PARAMETERS angstrom
7.89483400000000 0.00000000000000 0.00000000000000
0.00000000000000 7.87004400000000 0.00000000000000
0.00000000000000 0.00000000000000 8.01469200000000

ATOMIC_POSITIONS angstrom
Pt 7.8615650000 0.0012825634 0.1064975500  
Pt 7.8407593000 2.0111632000 1.9448727000  
Pt 2.0181630000 0.0080142280 1.9867786000  
Pt 1.9181294000 1.9590015000 0.0770742150  
Pt 0.1505289400 0.0407510770 3.9973657000  
Pt 0.0731546300 1.8660527000 5.9957130000  
Pt 1.9848944000 7.8574930000 6.0650240000  
Pt 2.0064075000 1.9664974000 4.0295350000  
Pt 7.8087460000 3.8772871000 7.8615950000  
Pt 7.7640343000 5.8245296000 1.9473801000  
Pt 1.9350554000 3.8726735000 2.0030713000  
Pt 1.7743974000 5.9246970000 0.0104661580  
Pt 0.1544816300 3.9094074000 4.0608320000  
Pt 0.0046061650 5.8138470000 6.1058030000  
Pt 2.0503979000 3.9989880000 5.9158580000  
Pt 1.9442458000 5.7787620000 3.9190104000  
Pt 3.9766057000 7.7977940000 0.1406600300  
Pt 3.9927747000 1.9676383000 1.9529688000  
Pt 5.9877800000 0.0617970700 1.9740559000  
Pt 5.9429660000 1.9521389000 8.0009775000  
Pt 3.9607673000 0.0368380470 3.9378576000  
Pt 3.9306050000 2.0079790000 5.9202800000  
Pt 5.8536534000 0.0809638650 6.0467860000  
Pt 5.9725760000 1.9356725000 3.9950995000  
Pt 3.8251264000 4.1373477000 0.0176366270  
Pt 3.9475684000 5.9198384000 2.0973477000  
Pt 5.8688335000 3.8530216000 2.0270143000  
Pt 5.9037747000 5.8315630000 8.0019620000  
Pt 3.9372325000 3.9840240000 4.0072417000  
Pt 3.9976592000 6.0029150000 5.9862127000  
Pt 5.9394608000 3.9217184000 5.9676785000  
Pt 5.9785130000 5.9634156000 4.1411710000  

