&CONTROL
   calculation      = 'scf'
   restart_mode     = 'from_scratch'
   tprnfor          = .true.
   outdir           = './outdir'
   disk_io          = 'none'
   pseudo_dir       = '/scratch/ch24d003/pseudo'
/
&SYSTEM
   ibrav            = 0
   nat              = 32
   ntyp             = 1
   nbnd             = 346
   ecutwfc          = 70
   ecutrho          = 280
   occupations      = 'smearing'
   degauss          = 0.02
   smearing         = 'marzari-vanderbilt'
   input_dft        = 'PBE'
/
&ELECTRONS
   electron_maxstep = 200
   conv_thr         = 1e-06
   mixing_beta      = 0.1
   mixing_ndim      = 8
   diagonalization  = 'david'
/
&IONS
/
&CELL
/
&FCP
/
&RISM
/
ATOMIC_SPECIES
Pt 195.084 Pt_ONCV_PBE-1.2.upf

K_POINTS automatic
4 4 4  0 0 0

CELL_PARAMETERS angstrom
7.89483400000000 0.00000000000000 0.00000000000000
0.00000000000000 7.87004400000000 0.00000000000000
0.00000000000000 0.00000000000000 8.01469200000000

ATOMIC_POSITIONS angstrom
Pt 0.0179962480 7.7974390000 7.9443173000  
Pt 7.8656440000 1.9011774000 2.0318440000  
Pt 2.0057860000 0.0889348900 2.0227153000  
Pt 1.8234527000 1.9096181000 8.0057740000  
Pt 7.8571653000 0.0875352500 3.9715385000  
Pt 0.0093551980 2.0961100000 6.0381350000  
Pt 1.8826883000 0.1048026300 5.9872970000  
Pt 1.9818319000 1.9558425000 4.0449405000  
Pt 0.0315546300 3.9014244000 0.0791125800  
Pt 0.0672041900 5.8556940000 2.0196245000  
Pt 2.0631610000 3.9144716000 2.0401845000  
Pt 1.9339280000 5.8406910000 0.0569478530  
Pt 0.0747594000 3.9834352000 4.0301030000  
Pt 7.8697000000 5.9165220000 6.0085073000  
Pt 1.9828619000 3.9611285000 6.0382720000  
Pt 2.0094314000 5.9914074000 3.8562130000  
Pt 3.9078748000 7.7847867000 0.0650612040  
Pt 3.9623604000 1.8945223000 2.0427186000  
Pt 5.9774750000 7.7751920000 1.9749126000  
Pt 5.8339243000 1.8289009000 0.0070800874  
Pt 4.0543790000 7.8177714000 4.0996475000  
Pt 3.8808600000 2.0222747000 5.9878426000  
Pt 5.9051590000 0.2034565700 5.9997005000  
Pt 5.8737187000 2.0152729000 3.8792710000  
Pt 3.9595435000 3.9572232000 7.9541755000  
Pt 3.9779062000 5.9907710000 1.9703465000  
Pt 5.8731560000 3.8530917000 2.0149937000  
Pt 6.0223103000 5.9135604000 7.9598250000  
Pt 4.0103674000 3.9626298000 3.9273052000  
Pt 3.8199804000 5.7996840000 6.0335784000  
Pt 5.8702364000 3.8252652000 6.0567780000  
Pt 6.0048590000 5.9545627000 4.1077557000  

