&CONTROL
   calculation      = 'scf'
   restart_mode     = 'from_scratch'
   tprnfor          = .true.
   outdir           = './outdir'
   disk_io          = 'none'
   pseudo_dir       = './../pseudo'
/
&SYSTEM
   ibrav            = 0
   nat              = 32
   ntyp             = 1
   nbnd             = 346
   ecutwfc          = 70
   ecutrho          = 280
   occupations      = 'smearing'
   degauss          = 0.02
   smearing         = 'marzari-vanderbilt'
   input_dft        = 'PBE'
/
&ELECTRONS
   electron_maxstep = 200
   conv_thr         = 1e-06
   mixing_beta      = 0.1
   mixing_ndim      = 8
   diagonalization  = 'david'
/
&IONS
/
&CELL
/
&FCP
/
&RISM
/
ATOMIC_SPECIES
Pt 195.084 Pt_ONCV_PBE-1.2.upf

K_POINTS automatic
4 4 4  0 0 0

CELL_PARAMETERS angstrom
7.99910669103430 0.00000000000000 0.00000000000000
0.00000000000000 7.94256750558226 0.00000000000000
0.00000000000000 0.00000000000000 7.88174636552561

ATOMIC_POSITIONS angstrom
Pt -0.0081626865 0.0078286615 -0.0043693683  
Pt 0.0045448300 1.9801300113 1.9754909444  
Pt 2.0096849193 -0.0074578712 1.9702422896  
Pt 2.0220206116 1.9726994062 -0.0072632286  
Pt -0.0025509785 -0.0056832645 3.9400734439  
Pt -0.0005430838 1.9709397969 5.9132288473  
Pt 2.0183783291 -0.0028971601 5.9010907829  
Pt 2.0057967336 1.9862863762 3.9388620102  
Pt 0.0099580499 3.9676446428 0.0028891687  
Pt -0.0035250741 5.9329530459 1.9648579853  
Pt 2.0056762551 3.9595483180 1.9656293445  
Pt 2.0130425829 5.9371905522 0.0021147052  
Pt -0.0018542649 3.9527191294 3.9426499876  
Pt 0.0054925684 5.9386214879 5.8975427977  
Pt 2.0234808956 3.9617812778 5.8975995772  
Pt 2.0252808565 5.9313481907 3.9442052791  
Pt 4.0256873166 0.0080542525 -0.0023748857  
Pt 4.0285204255 1.9770037447 1.9683864320  
Pt 6.0486126649 -0.0020367425 1.9679086816  
Pt 6.0383389623 1.9773795715 0.0003181847  
Pt 4.0278999032 0.0042888672 3.9446201643  
Pt 4.0216044164 1.9805163598 5.9007755505  
Pt 6.0425374835 0.0067481207 5.9130507349  
Pt 6.0430892996 1.9716675746 3.9375453987  
Pt 4.0324779739 3.9603779808 -0.0082650645  
Pt 4.0339148456 5.9307922811 1.9661232236  
Pt 6.0507084443 3.9537575422 1.9629401093  
Pt 6.0524219377 5.9437645951 0.0082748462  
Pt 4.0238794791 3.9674997198 3.9442069626  
Pt 4.0253236102 5.9400285348 5.9112997105  
Pt 6.0561790984 3.9629202630 5.8980758062  
Pt 6.0546967372 5.9395003583 3.9345062681  

