&CONTROL
   calculation      = 'scf'
   restart_mode     = 'from_scratch'
   tprnfor          = .true.
   outdir           = './outdir'
   disk_io          = 'none'
   pseudo_dir       = '/scratch/ch24d003/pseudo'
/
&SYSTEM
   ibrav            = 0
   nat              = 32
   ntyp             = 1
   nbnd             = 346
   ecutwfc          = 70
   ecutrho          = 280
   occupations      = 'smearing'
   degauss          = 0.02
   smearing         = 'marzari-vanderbilt'
   input_dft        = 'PBE'
/
&ELECTRONS
   electron_maxstep = 200
   conv_thr         = 1e-06
   mixing_beta      = 0.1
   mixing_ndim      = 8
   diagonalization  = 'david'
/
&IONS
/
&CELL
/
&FCP
/
&RISM
/
ATOMIC_SPECIES
Pt 195.084 Pt_ONCV_PBE-1.2.upf

K_POINTS automatic
4 4 4  0 0 0

CELL_PARAMETERS angstrom
7.89483400000000 0.00000000000000 0.00000000000000
0.00000000000000 7.87004400000000 0.00000000000000
0.00000000000000 0.00000000000000 8.01469200000000

ATOMIC_POSITIONS angstrom
Pt 0.0589084400 7.7640810000 0.0406438500  
Pt 7.8472450000 2.0326300000 2.0234945000  
Pt 1.9385499000 0.0198767280 2.0620356000  
Pt 1.9144832000 1.9561235000 0.0329217540  
Pt 0.0248363870 0.0876028600 4.0721903000  
Pt 0.1172736660 1.9667340000 6.0254407000  
Pt 1.9093050000 0.0255661010 6.0344677000  
Pt 1.9803706000 1.9725952000 3.9269884000  
Pt 0.0053349060 3.8583340000 7.9676280000  
Pt 0.0536332470 5.8494506000 1.9281770000  
Pt 1.9930073000 3.9704392000 1.9822782000  
Pt 1.9901190000 5.7759547000 7.9937580000  
Pt 7.8591700000 3.8527198000 3.8812606000  
Pt 0.0005708599 5.9276514000 6.0628166000  
Pt 2.0247974000 3.8878698000 5.9053197000  
Pt 1.9599462000 5.8305197000 3.9764764000  
Pt 3.9058084000 7.8683550000 7.9888790000  
Pt 4.0214310000 1.9715380000 2.0324724000  
Pt 5.9169500000 7.8249264000 2.1107035000  
Pt 5.9542203000 1.9210391000 8.0089270000  
Pt 3.9650953000 7.7955723000 4.0651170000  
Pt 3.8278610000 1.9726998000 5.9660370000  
Pt 5.8996544000 0.1171943200 6.0466423000  
Pt 5.8561387000 1.9527326000 4.1603710000  
Pt 3.9661195000 3.9117530000 7.9892526000  
Pt 3.9585972000 5.9768624000 2.0573049000  
Pt 5.8188180000 3.9238958000 2.0153337000  
Pt 5.8696820000 6.0467834000 7.9666348000  
Pt 3.9754422000 4.0354643000 3.9639614000  
Pt 3.8571131000 5.9000597000 6.0355020000  
Pt 6.0060770000 3.9542594000 5.9580010000  
Pt 6.0392375000 5.9539156000 4.0048666000  

