&CONTROL
   calculation      = 'scf'
   restart_mode     = 'from_scratch'
   tprnfor          = .true.
   outdir           = './outdir'
   disk_io          = 'none'
   pseudo_dir       = './../pseudo'
/
&SYSTEM
   ibrav            = 0
   nat              = 32
   ntyp             = 1
   nbnd             = 346
   ecutwfc          = 70
   ecutrho          = 280
   occupations      = 'smearing'
   degauss          = 0.02
   smearing         = 'marzari-vanderbilt'
   input_dft        = 'PBE'
/
&ELECTRONS
   electron_maxstep = 200
   conv_thr         = 1e-06
   mixing_beta      = 0.1
   mixing_ndim      = 8
   diagonalization  = 'david'
/
&IONS
/
&CELL
/
&FCP
/
&RISM
/
ATOMIC_SPECIES
Pt 195.084 Pt_ONCV_PBE-1.2.upf

K_POINTS automatic
4 4 4  0 0 0

CELL_PARAMETERS angstrom
7.91196373811242 0.00000000000000 0.00000000000000
0.00000000000000 7.89265389504345 0.00000000000000
0.00000000000000 0.00000000000000 8.00663992242079

ATOMIC_POSITIONS angstrom
Pt 0.0000653675 0.0084881984 0.0008089218  
Pt -0.0069853754 1.9599009766 2.0101111746  
Pt 1.9948394288 0.0056162873 2.0159736270  
Pt 1.9798333061 1.9600505048 -0.0003146221  
Pt 0.0016197153 0.0085014315 4.0320532292  
Pt 0.0084473805 1.9515468145 6.0584799811  
Pt 1.9892764787 0.0074467392 6.0570192822  
Pt 1.9970355054 1.9700535204 4.0470690256  
Pt 0.0087556054 3.9180888353 0.0056135743  
Pt 0.0070872473 5.8890247683 2.0244266105  
Pt 1.9824024379 3.9165603518 2.0252789336  
Pt 1.9800125774 5.8909040650 0.0037712522  
Pt 0.0027766252 3.9125175028 4.0470010432  
Pt -0.0087284258 5.8886862959 6.0602000229  
Pt 1.9943249989 3.9205849010 6.0502312453  
Pt 1.9950275032 5.8838942332 4.0309789798  
Pt 3.9684645776 0.0025475853 -0.0095093150  
Pt 3.9818500576 1.9608618063 2.0177614398  
Pt 5.9640144470 0.0007978524 2.0254335011  
Pt 5.9680756910 1.9512441804 0.0018728720  
Pt 3.9756717450 0.0021131930 4.0427946221  
Pt 3.9698910116 1.9679312351 6.0597668129  
Pt 5.9708195976 -0.0037265504 6.0548640207  
Pt 5.9724271814 1.9679074226 4.0472310835  
Pt 3.9736390265 3.9232768847 -0.0004518340  
Pt 3.9682775697 5.8733096750 2.0205138292  
Pt 5.9593442095 3.9251873023 2.0134449637  
Pt 5.9620562604 5.8735206526 -0.0045185858  
Pt 3.9679741122 3.9206861792 4.0377059170  
Pt 3.9670788927 5.8731567514 6.0511384247  
Pt 5.9589282179 3.9274077004 6.0638391332  
Pt 5.9673420162 5.8763831522 4.0303259978  

