&CONTROL
   calculation      = 'scf'
   restart_mode     = 'from_scratch'
   tprnfor          = .true.
   outdir           = './outdir'
   disk_io          = 'none'
   pseudo_dir       = '/scratch/ch24d003/pseudo'
/
&SYSTEM
   ibrav            = 0
   nat              = 32
   ntyp             = 1
   nbnd             = 346
   ecutwfc          = 70
   ecutrho          = 280
   occupations      = 'smearing'
   degauss          = 0.02
   smearing         = 'marzari-vanderbilt'
   input_dft        = 'PBE'
/
&ELECTRONS
   electron_maxstep = 200
   conv_thr         = 1e-06
   mixing_beta      = 0.1
   mixing_ndim      = 8
   diagonalization  = 'david'
/
&IONS
/
&CELL
/
&FCP
/
&RISM
/
ATOMIC_SPECIES
Pt 195.084 Pt_ONCV_PBE-1.2.upf

K_POINTS automatic
4 4 4  0 0 0

CELL_PARAMETERS angstrom
7.89483400000000 0.00000000000000 0.00000000000000
0.00000000000000 7.87004400000000 0.00000000000000
0.00000000000000 0.00000000000000 8.01469200000000

ATOMIC_POSITIONS angstrom
Pt 7.7278695000 7.7879333000 0.1085408700  
Pt 7.8412320000 1.9798744000 2.0873716000  
Pt 2.0366140000 0.0620611650 1.8935279000  
Pt 1.9245683000 1.8785189000 0.0207408010  
Pt 7.8580656000 7.8469590000 3.9552930000  
Pt 0.1337314700 1.9239734000 6.1533980000  
Pt 1.9886414000 7.7369950000 5.9608297000  
Pt 1.9600229000 2.0239785000 3.8760808000  
Pt 7.8734026000 3.9671748000 0.0050321710  
Pt 0.0072431876 5.8728370000 1.9970667000  
Pt 2.0024896000 4.0439690000 2.0279210000  
Pt 1.9682527000 5.8912377000 0.0069477620  
Pt 0.0532612100 3.9295497000 4.0563126000  
Pt 7.8424650000 5.9693540000 6.0751343000  
Pt 1.9791377000 3.8996143000 6.1053610000  
Pt 1.8396374000 5.9563770000 4.0201707000  
Pt 4.0601506000 0.0712026660 7.9757090000  
Pt 3.9416664000 1.9738581000 1.9418977000  
Pt 5.9677820000 0.0174977900 2.0284715000  
Pt 6.0094330000 2.0189283000 0.0083964890  
Pt 3.8902762000 7.8652700000 3.8790946000  
Pt 3.9257274000 2.0302696000 6.0539520000  
Pt 5.8602314000 0.0926979900 5.8300967000  
Pt 5.8725000000 1.9679823000 3.9991570000  
Pt 4.0166435000 3.8049285000 0.0225214730  
Pt 3.9721243000 5.9200463000 1.9735669000  
Pt 5.9203840000 3.9246643000 1.9976296000  
Pt 5.8545260000 5.8276140000 8.0137400000  
Pt 3.9386244000 3.9435000000 4.0339856000  
Pt 4.0762450000 5.9072840000 6.1161895000  
Pt 5.9229856000 3.9215193000 5.9817750000  
Pt 5.9343640000 5.8475285000 4.0212226000  

