&CONTROL
   calculation      = 'scf'
   restart_mode     = 'from_scratch'
   tprnfor          = .true.
   outdir           = './outdir'
   disk_io          = 'none'
   pseudo_dir       = './../pseudo'
/
&SYSTEM
   ibrav            = 0
   nat              = 32
   ntyp             = 1
   nbnd             = 346
   ecutwfc          = 70
   ecutrho          = 280
   occupations      = 'smearing'
   degauss          = 0.02
   smearing         = 'marzari-vanderbilt'
   input_dft        = 'PBE'
/
&ELECTRONS
   electron_maxstep = 200
   conv_thr         = 1e-06
   mixing_beta      = 0.1
   mixing_ndim      = 8
   diagonalization  = 'david'
/
&IONS
/
&CELL
/
&FCP
/
&RISM
/
ATOMIC_SPECIES
Pt 195.084 Pt_ONCV_PBE-1.2.upf

K_POINTS automatic
4 4 4  0 0 0

CELL_PARAMETERS angstrom
8.01653244611309 0.00000000000000 0.00000000000000
0.00000000000000 7.90131423189936 0.00000000000000
0.00000000000000 0.00000000000000 7.88479241114760

ATOMIC_POSITIONS angstrom
Pt -0.0016574383 -0.0041087251 -0.0037984610  
Pt -0.0090957293 1.9825822420 1.9718956523  
Pt 2.0218692987 -0.0076032268 1.9747032397  
Pt 2.0275984341 1.9865343345 0.0042571696  
Pt 0.0101158951 0.0092321489 3.9511655408  
Pt -0.0060672451 1.9920097304 5.9331574257  
Pt 2.0179822979 -0.0039776712 5.9425552199  
Pt 2.0133343686 1.9866339067 3.9568883341  
Pt -0.0047962160 3.9736554173 -0.0028287425  
Pt -0.0016549481 5.9631589128 1.9875059724  
Pt 2.0200208328 3.9701585602 1.9750367816  
Pt 2.0320486854 5.9565436419 -0.0077562569  
Pt 0.0062182840 3.9805505923 3.9568626742  
Pt 0.0025894627 5.9600486684 5.9336564676  
Pt 2.0236361888 3.9817838957 5.9355222171  
Pt 2.0306162900 5.9692143282 3.9573223179  
Pt 4.0529048188 -0.0003949426 0.0093960867  
Pt 4.0553003084 1.9787094729 1.9727119032  
Pt 6.0688691350 0.0041461257 1.9778859528  
Pt 6.0619845180 1.9908354927 0.0017921935  
Pt 4.0404210152 0.0005536012 3.9690939400  
Pt 4.0536242181 1.9844991900 5.9415971796  
Pt 6.0709177591 -0.0062043869 5.9476411629  
Pt 6.0619187939 1.9943658187 3.9663339256  
Pt 4.0535717851 3.9706121937 0.0054206454  
Pt 4.0480333353 5.9674123538 1.9827641133  
Pt 6.0640174897 3.9836423544 1.9764686878  
Pt 6.0737512264 5.9675143273 -0.0079154917  
Pt 4.0379671548 3.9686420006 3.9568860788  
Pt 4.0368952042 5.9659776247 5.9402953128  
Pt 6.0675357181 3.9831086199 5.9438979252  
Pt 6.0604180818 5.9671639147 3.9696412303  

