&CONTROL
   calculation      = 'scf'
   restart_mode     = 'from_scratch'
   tprnfor          = .true.
   outdir           = './outdir'
   disk_io          = 'none'
   pseudo_dir       = '/scratch/ch24d003/pseudo'
/
&SYSTEM
   ibrav            = 0
   nat              = 32
   ntyp             = 1
   nbnd             = 346
   ecutwfc          = 70
   ecutrho          = 280
   occupations      = 'smearing'
   degauss          = 0.02
   smearing         = 'marzari-vanderbilt'
   input_dft        = 'PBE'
/
&ELECTRONS
   electron_maxstep = 200
   conv_thr         = 1e-06
   mixing_beta      = 0.1
   mixing_ndim      = 8
   diagonalization  = 'david'
/
&IONS
/
&CELL
/
&FCP
/
&RISM
/
ATOMIC_SPECIES
Pt 195.084 Pt_ONCV_PBE-1.2.upf

K_POINTS automatic
4 4 4  0 0 0

CELL_PARAMETERS angstrom
7.89483400000000 0.00000000000000 0.00000000000000
0.00000000000000 7.87004400000000 0.00000000000000
0.00000000000000 0.00000000000000 8.01469200000000

ATOMIC_POSITIONS angstrom
Pt 7.7542872000 0.0285255150 7.9820060000  
Pt 7.8933043000 1.7781405000 2.1166523000  
Pt 2.1147046000 7.8537070000 2.0390677000  
Pt 1.9416443000 1.8301264000 0.1293865000  
Pt 7.8267970000 7.8095480000 4.0657200000  
Pt 7.8396920000 2.0091422000 5.8604370000  
Pt 1.9871792000 0.1489218000 5.9850890000  
Pt 1.9904336000 2.0095513000 3.8564854000  
Pt 0.0424135740 3.9677927000 0.0529731200  
Pt 0.0205553600 5.9314490000 2.0946324000  
Pt 1.9071420000 3.8645446000 1.9069877000  
Pt 2.0427623000 5.8946470000 0.1174374000  
Pt 0.1220541500 4.0477740000 4.0206394000  
Pt 7.7838150000 5.8822760000 6.0774100000  
Pt 1.8829391000 3.8747282000 6.1221395000  
Pt 2.0811580000 5.9003550000 3.9543831000  
Pt 4.0473540000 0.0333646050 7.9429440000  
Pt 3.9351676000 1.9709980000 2.0483260000  
Pt 5.9224130000 0.1101112000 1.9951391000  
Pt 5.8247110000 2.0035810000 0.0292092860  
Pt 4.0528840000 7.7323250000 4.1436405000  
Pt 3.8674364000 2.1057250000 5.9491760000  
Pt 6.0263780000 0.0527703350 6.0549655000  
Pt 5.9643210000 2.0657040000 3.9556499000  
Pt 3.7653053000 3.7909322000 8.0129190000  
Pt 4.0807414000 5.9413815000 2.0549254000  
Pt 6.0053150000 3.9829364000 1.9116994000  
Pt 5.9195304000 5.9361470000 7.9728856000  
Pt 3.8869016000 3.9667820000 3.8708274000  
Pt 3.8693150000 5.8735843000 5.9653590000  
Pt 5.8790655000 3.8832917000 6.0174190000  
Pt 5.9225755000 5.7542910000 3.9499867000  

