&CONTROL
   calculation      = 'scf'
   restart_mode     = 'from_scratch'
   tprnfor          = .true.
   outdir           = './outdir'
   disk_io          = 'none'
   pseudo_dir       = '/scratch/ch24d003/pseudo'
/
&SYSTEM
   ibrav            = 0
   nat              = 32
   ntyp             = 1
   nbnd             = 346
   ecutwfc          = 70
   ecutrho          = 280
   occupations      = 'smearing'
   degauss          = 0.02
   smearing         = 'marzari-vanderbilt'
   input_dft        = 'PBE'
/
&ELECTRONS
   electron_maxstep = 200
   conv_thr         = 1e-06
   mixing_beta      = 0.1
   mixing_ndim      = 8
   diagonalization  = 'david'
/
&IONS
/
&CELL
/
&FCP
/
&RISM
/
ATOMIC_SPECIES
Pt 195.084 Pt_ONCV_PBE-1.2.upf

K_POINTS automatic
4 4 4  0 0 0

CELL_PARAMETERS angstrom
7.89483400000000 0.00000000000000 0.00000000000000
0.00000000000000 7.87004400000000 0.00000000000000
0.00000000000000 0.00000000000000 8.01469200000000

ATOMIC_POSITIONS angstrom
Pt 0.0167296570 0.0811431000 0.0264079530  
Pt 0.0150917230 2.0387073000 2.1037683000  
Pt 1.9137102000 0.0183393550 1.9620550000  
Pt 1.9059576000 2.0416613000 0.0015870776  
Pt 0.0294034610 7.7375800000 4.0208583000  
Pt 7.8587704000 2.0008478000 6.0011750000  
Pt 1.9093713000 0.0315678400 5.9550514000  
Pt 1.9481088000 1.9740467000 4.0599704000  
Pt 7.8091187000 3.9337535000 7.9532810000  
Pt 0.0120897270 5.8806580000 1.9977742000  
Pt 1.9982935000 3.9110398000 1.9653606000  
Pt 1.9820356000 5.9148560000 7.9773010000  
Pt 7.8688080000 3.9032679000 4.1022430000  
Pt 7.8275800000 5.8039765000 6.1020756000  
Pt 1.9976588000 3.8990483000 5.9012960000  
Pt 2.0038290000 5.9005713000 3.9476168000  
Pt 3.8539174000 0.1030319900 7.9466960000  
Pt 3.9471314000 1.9740484000 2.0154448000  
Pt 5.9568534000 7.8352942000 2.0343883000  
Pt 5.9737897000 1.8709438000 0.1336472600  
Pt 3.9871378000 7.8333907000 3.9247625000  
Pt 3.9770288000 1.9055480000 5.8800235000  
Pt 6.0300136000 7.8242760000 6.0386825000  
Pt 5.7865076000 1.9579341000 3.9498894000  
Pt 4.0609426000 3.9266987000 7.9996600000  
Pt 3.9389230000 6.0353737000 2.0102320000  
Pt 6.0247930000 3.9417124000 1.8868868000  
Pt 5.8973594000 5.9647460000 0.1163592040  
Pt 4.0143560000 3.9642808000 4.0745560000  
Pt 4.0266120000 5.9659033000 6.0803356000  
Pt 5.8365280000 3.9521840000 6.0645704000  
Pt 5.8970146000 5.7787695000 4.0225640000  

