&CONTROL
   calculation      = 'scf'
   restart_mode     = 'from_scratch'
   tprnfor          = .true.
   outdir           = './outdir'
   disk_io          = 'none'
   pseudo_dir       = './../pseudo'
/
&SYSTEM
   ibrav            = 0
   nat              = 32
   ntyp             = 1
   nbnd             = 346
   ecutwfc          = 70
   ecutrho          = 280
   occupations      = 'smearing'
   degauss          = 0.02
   smearing         = 'marzari-vanderbilt'
   input_dft        = 'PBE'
/
&ELECTRONS
   electron_maxstep = 200
   conv_thr         = 1e-06
   mixing_beta      = 0.1
   mixing_ndim      = 8
   diagonalization  = 'david'
/
&IONS
/
&CELL
/
&FCP
/
&RISM
/
ATOMIC_SPECIES
Pt 195.084 Pt_ONCV_PBE-1.2.upf

K_POINTS automatic
4 4 4  0 0 0

CELL_PARAMETERS angstrom
7.91682179664681 0.00000000000000 0.00000000000000
0.00000000000000 7.91964149762885 0.00000000000000
0.00000000000000 0.00000000000000 7.97870417608608

ATOMIC_POSITIONS angstrom
Pt 0.0017030629 0.0073036050 0.0068100062  
Pt -0.0080393060 1.9770992516 1.9907616856  
Pt 1.9825897867 -0.0012961853 1.9880218414  
Pt 1.9824757411 1.9767004483 0.0007813095  
Pt 0.0019479092 0.0039149673 3.9708815428  
Pt -0.0043590047 1.9770070426 5.9509915167  
Pt 1.9906152217 0.0046495360 5.9493335097  
Pt 1.9897108394 1.9819141616 3.9645389571  
Pt 0.0059553261 3.9473474671 0.0062516930  
Pt -0.0014142715 5.9137507610 1.9786990226  
Pt 1.9927253568 3.9423432551 1.9844736275  
Pt 1.9836064321 5.9093383132 -0.0094573833  
Pt 0.0000776295 3.9518431677 3.9560946724  
Pt 0.0085670679 5.9148485437 5.9539474890  
Pt 1.9800317774 3.9525562819 5.9447224054  
Pt 1.9954426443 5.9269921227 3.9733763310  
Pt 3.9820618947 -0.0087874476 -0.0002832660  
Pt 3.9735738991 1.9674063705 1.9899774420  
Pt 5.9663416573 -0.0081018461 1.9755032195  
Pt 5.9499629826 1.9709011315 0.0030487474  
Pt 3.9819721891 0.0082674912 3.9615112977  
Pt 3.9670244844 1.9686568955 5.9437154422  
Pt 5.9680872107 -0.0098821569 5.9532156900  
Pt 5.9527300885 1.9704492681 3.9594607087  
Pt 3.9795068798 3.9358803771 -0.0017740988  
Pt 3.9668120833 5.9106527990 1.9780237707  
Pt 5.9591704418 3.9504295411 1.9834171037  
Pt 5.9602152891 5.9276317800 0.0055575542  
Pt 3.9806734674 3.9474484605 3.9726221663  
Pt 3.9744174000 5.9214843606 5.9490442822  
Pt 5.9600762317 3.9439889809 5.9495744511  
Pt 5.9673990868 5.9213903433 3.9696953095  

