&CONTROL
   calculation      = 'scf'
   restart_mode     = 'from_scratch'
   tprnfor          = .true.
   outdir           = './outdir'
   disk_io          = 'none'
   pseudo_dir       = './../pseudo'
/
&SYSTEM
   ibrav            = 0
   nat              = 32
   ntyp             = 1
   nbnd             = 346
   ecutwfc          = 70
   ecutrho          = 280
   occupations      = 'smearing'
   degauss          = 0.02
   smearing         = 'marzari-vanderbilt'
   input_dft        = 'PBE'
/
&ELECTRONS
   electron_maxstep = 200
   conv_thr         = 1e-06
   mixing_beta      = 0.1
   mixing_ndim      = 8
   diagonalization  = 'david'
/
&IONS
/
&CELL
/
&FCP
/
&RISM
/
ATOMIC_SPECIES
Pt 195.084 Pt_ONCV_PBE-1.2.upf

K_POINTS automatic
4 4 4  0 0 0

CELL_PARAMETERS angstrom
7.88699185483838 0.00000000000000 0.00000000000000
0.00000000000000 7.89439998399801 0.00000000000000
0.00000000000000 0.00000000000000 7.98061340061933

ATOMIC_POSITIONS angstrom
Pt -0.0083295399 -0.0060141943 -0.0089959487  
Pt 0.0036533600 1.9751844493 2.0194794533  
Pt 1.9872238790 0.0055021073 2.0161161633  
Pt 1.9783246306 1.9751597412 0.0096756913  
Pt -0.0022472732 0.0064109246 4.0277982216  
Pt 0.0068504191 1.9799848099 6.0370867031  
Pt 1.9733734232 -0.0015048832 6.0472884919  
Pt 1.9778529643 1.9651726981 4.0197114951  
Pt 0.0041038739 3.9408354122 0.0012340727  
Pt 0.0026751977 5.9142006591 2.0168823274  
Pt 1.9830562086 3.9415100716 2.0171510824  
Pt 1.9837587865 5.9258267622 -0.0059399689  
Pt 0.0074208579 3.9412384500 4.0315278125  
Pt 0.0074584727 5.9155636307 6.0417404615  
Pt 1.9770902917 3.9434468172 6.0355859571  
Pt 1.9805384922 5.9308951507 4.0184731426  
Pt 3.9566737366 -0.0035604804 -0.0072300318  
Pt 3.9549889931 1.9762118197 2.0142499841  
Pt 5.9299669402 0.0092773587 2.0222437816  
Pt 5.9291805223 1.9737076436 -0.0078742032  
Pt 3.9539181163 -0.0049176624 4.0278053527  
Pt 3.9656176309 1.9697175729 6.0446176665  
Pt 5.9377786602 -0.0088898503 6.0349175773  
Pt 5.9318388052 1.9675509132 4.0328876858  
Pt 3.9495971475 3.9427279124 0.0100177064  
Pt 3.9545972834 5.9145435808 2.0040022493  
Pt 5.9329211174 3.9474236381 2.0122221241  
Pt 5.9299294831 5.9149176255 -0.0002786251  
Pt 3.9611138077 3.9417979141 4.0315285419  
Pt 3.9481973288 5.9171973201 6.0309208237  
Pt 5.9287404048 3.9458763030 6.0312283355  
Pt 5.9424304616 5.9150432898 4.0217964663  

