&CONTROL
   calculation      = 'scf'
   restart_mode     = 'from_scratch'
   tprnfor          = .true.
   outdir           = './outdir'
   disk_io          = 'none'
   pseudo_dir       = './../pseudo'
/
&SYSTEM
   ibrav            = 0
   nat              = 32
   ntyp             = 1
   nbnd             = 346
   ecutwfc          = 70
   ecutrho          = 280
   occupations      = 'smearing'
   degauss          = 0.02
   smearing         = 'marzari-vanderbilt'
   input_dft        = 'PBE'
/
&ELECTRONS
   electron_maxstep = 200
   conv_thr         = 1e-06
   mixing_beta      = 0.1
   mixing_ndim      = 8
   diagonalization  = 'david'
/
&IONS
/
&CELL
/
&FCP
/
&RISM
/
ATOMIC_SPECIES
Pt 195.084 Pt_ONCV_PBE-1.2.upf

K_POINTS automatic
4 4 4  0 0 0

CELL_PARAMETERS angstrom
7.90604380727640 0.00000000000000 0.00000000000000
0.00000000000000 8.00937078186946 0.00000000000000
0.00000000000000 0.00000000000000 7.97861869325440

ATOMIC_POSITIONS angstrom
Pt -0.0075670586 0.0098347129 0.0011373049  
Pt -0.0035966187 1.9951906681 1.9879749839  
Pt 1.9753055909 -0.0061842256 1.9819148160  
Pt 1.9614833641 1.9855430027 -0.0073978267  
Pt -0.0015348402 0.0085147948 3.9826136401  
Pt -0.0029447246 1.9864296693 5.9695249086  
Pt 1.9653854313 0.0029067815 5.9687094145  
Pt 1.9614921632 1.9921940395 3.9732243427  
Pt -0.0010579644 3.9988089368 0.0079421320  
Pt -0.0073052875 5.9950624606 1.9892474922  
Pt 1.9607652328 3.9903300324 1.9807997436  
Pt 1.9750763169 5.9811518973 -0.0043962665  
Pt -0.0058231655 3.9971380213 3.9805633341  
Pt -0.0017510753 5.9840379601 5.9521786615  
Pt 1.9642518646 3.9845237752 5.9677405240  
Pt 1.9783266688 5.9909247856 3.9770127366  
Pt 3.9352831302 -0.0076878095 0.0054863256  
Pt 3.9450074482 2.0011838650 1.9800105104  
Pt 5.9143623515 -0.0096601916 1.9954592581  
Pt 5.9165635284 1.9993184374 -0.0032013833  
Pt 3.9371341777 -0.0008472911 3.9811179877  
Pt 3.9494034142 2.0018122177 5.9569442174  
Pt 5.9145916415 0.0066281852 5.9677851975  
Pt 5.9137419602 1.9862423645 3.9700397940  
Pt 3.9385036032 3.9894097119 0.0011219947  
Pt 3.9443634763 5.9767717724 1.9811136320  
Pt 5.9047947757 3.9919662648 1.9807094949  
Pt 5.9130955247 5.9832402518 0.0080171931  
Pt 3.9412200945 3.9811645695 3.9788816840  
Pt 3.9396396409 5.9811776454 5.9544417648  
Pt 5.9128691281 3.9809958711 5.9647556957  
Pt 5.9141002830 5.9890428941 3.9664018614  

