&CONTROL
   calculation      = 'scf'
   restart_mode     = 'from_scratch'
   tprnfor          = .true.
   outdir           = './outdir'
   disk_io          = 'none'
   pseudo_dir       = './../pseudo'
/
&SYSTEM
   ibrav            = 0
   nat              = 32
   ntyp             = 1
   nbnd             = 346
   ecutwfc          = 70
   ecutrho          = 280
   occupations      = 'smearing'
   degauss          = 0.02
   smearing         = 'marzari-vanderbilt'
   input_dft        = 'PBE'
/
&ELECTRONS
   electron_maxstep = 200
   conv_thr         = 1e-06
   mixing_beta      = 0.1
   mixing_ndim      = 8
   diagonalization  = 'david'
/
&IONS
/
&CELL
/
&FCP
/
&RISM
/
ATOMIC_SPECIES
Pt 195.084 Pt_ONCV_PBE-1.2.upf

K_POINTS automatic
4 4 4  0 0 0

CELL_PARAMETERS angstrom
7.87915350603421 0.00000000000000 0.00000000000000
0.00000000000000 7.93504672928547 0.00000000000000
0.00000000000000 0.00000000000000 7.96918266658717

ATOMIC_POSITIONS angstrom
Pt -0.0015448974 -0.0041756171 0.0098039824  
Pt -0.0007864644 1.9949321463 1.9803601120  
Pt 1.9778223285 -0.0034337862 1.9844497832  
Pt 1.9801001989 1.9998315989 0.0041491942  
Pt -0.0062687246 -0.0021509835 3.9616500750  
Pt -0.0092352338 1.9987230772 5.9295871163  
Pt 1.9692427439 0.0085774756 5.9363354041  
Pt 1.9699094433 2.0040762426 3.9466812313  
Pt -0.0021358509 3.9905677014 0.0044045792  
Pt 0.0091460289 5.9986071852 1.9771914682  
Pt 1.9865965239 4.0032717439 1.9670328471  
Pt 1.9693089755 5.9816202741 0.0014973848  
Pt -0.0038388057 3.9843899401 3.9526085724  
Pt -0.0062467879 5.9885785181 5.9251116258  
Pt 1.9740311331 3.9873253130 5.9276016045  
Pt 1.9761407093 5.9897514446 3.9454750994  
Pt 3.9628410392 0.0012666364 0.0083580568  
Pt 3.9525039450 2.0002940371 1.9865557263  
Pt 5.9325026678 -0.0043070142 1.9759656751  
Pt 5.9428181618 1.9989612870 -0.0006919975  
Pt 3.9619496262 -0.0070080583 3.9535913246  
Pt 3.9512223774 1.9950948516 5.9319506309  
Pt 5.9303361277 -0.0064604743 5.9303525239  
Pt 5.9393844719 2.0029201308 3.9512601697  
Pt 3.9606977826 3.9866791606 0.0032429877  
Pt 3.9490369021 5.9921172392 1.9862605568  
Pt 5.9368797794 3.9886574293 1.9855888937  
Pt 5.9274112813 5.9987291892 0.0039957284  
Pt 3.9599537532 3.9973103046 3.9528475857  
Pt 3.9461704950 5.9974077349 5.9292649464  
Pt 5.9341946840 3.9869214209 5.9230247693  
Pt 5.9437184922 5.9887811585 3.9509319193  

