&CONTROL
   calculation      = 'scf'
   restart_mode     = 'from_scratch'
   tprnfor          = .true.
   outdir           = './outdir'
   disk_io          = 'none'
   pseudo_dir       = './../pseudo'
/
&SYSTEM
   ibrav            = 0
   nat              = 32
   ntyp             = 1
   nbnd             = 346
   ecutwfc          = 70
   ecutrho          = 280
   occupations      = 'smearing'
   degauss          = 0.02
   smearing         = 'marzari-vanderbilt'
   input_dft        = 'PBE'
/
&ELECTRONS
   electron_maxstep = 200
   conv_thr         = 1e-06
   mixing_beta      = 0.1
   mixing_ndim      = 8
   diagonalization  = 'david'
/
&IONS
/
&CELL
/
&FCP
/
&RISM
/
ATOMIC_SPECIES
Pt 195.084 Pt_ONCV_PBE-1.2.upf

K_POINTS automatic
4 4 4  0 0 0

CELL_PARAMETERS angstrom
8.01341368273102 0.00000000000000 0.00000000000000
0.00000000000000 7.86646832944028 0.00000000000000
0.00000000000000 0.00000000000000 7.96831826100589

ATOMIC_POSITIONS angstrom
Pt 0.0010942160 -0.0017088692 -0.0071041610  
Pt 0.0057438294 1.9476496246 2.0057050896  
Pt 2.0131384265 0.0096261887 2.0008943021  
Pt 2.0145844085 1.9495077466 -0.0036054087  
Pt -0.0020023799 0.0034608774 4.0099138303  
Pt -0.0056071268 1.9535284489 5.9965877739  
Pt 2.0296523327 0.0028630297 5.9937570299  
Pt 2.0178465218 1.9624165510 3.9953452127  
Pt -0.0038200555 3.9165700492 0.0036859732  
Pt -0.0046630270 5.8708076934 1.9911051858  
Pt 2.0273011700 3.9019268466 1.9958073037  
Pt 2.0161005860 5.8748805934 0.0025635397  
Pt -0.0030178419 3.9197617218 3.9923364344  
Pt 0.0082605235 5.8683373900 5.9994563377  
Pt 2.0201862890 3.9021861209 6.0010141169  
Pt 2.0304923033 5.8656748454 4.0001161885  
Pt 4.0415014678 0.0023546118 0.0078107302  
Pt 4.0414342040 1.9542269034 2.0058528107  
Pt 6.0706293760 0.0000523776 1.9974174207  
Pt 6.0686875072 1.9630675451 -0.0022878330  
Pt 4.0487689950 -0.0019168690 3.9911902007  
Pt 4.0510802422 1.9641514672 6.0052800932  
Pt 6.0645006187 0.0093055785 5.9977371822  
Pt 6.0663046973 1.9562596973 4.0085717176  
Pt 4.0482556953 3.9166239528 -0.0094262847  
Pt 4.0474863431 5.8610126060 2.0022233995  
Pt 6.0579944738 3.9059262990 1.9937435888  
Pt 6.0674757755 5.8754066313 0.0023243477  
Pt 4.0368905481 3.9172467016 3.9958045080  
Pt 4.0504883701 5.8644040118 5.9957659754  
Pt 6.0674985405 3.9135536364 6.0099421862  
Pt 6.0704597100 5.8687210375 3.9912032654  

