&CONTROL
   calculation      = 'scf'
   restart_mode     = 'from_scratch'
   tprnfor          = .true.
   outdir           = './outdir'
   disk_io          = 'none'
   pseudo_dir       = './../pseudo'
/
&SYSTEM
   ibrav            = 0
   nat              = 32
   ntyp             = 1
   nbnd             = 346
   ecutwfc          = 70
   ecutrho          = 280
   occupations      = 'smearing'
   degauss          = 0.02
   smearing         = 'marzari-vanderbilt'
   input_dft        = 'PBE'
/
&ELECTRONS
   electron_maxstep = 200
   conv_thr         = 1e-06
   mixing_beta      = 0.1
   mixing_ndim      = 8
   diagonalization  = 'david'
/
&IONS
/
&CELL
/
&FCP
/
&RISM
/
ATOMIC_SPECIES
Pt 195.084 Pt_ONCV_PBE-1.2.upf

K_POINTS automatic
4 4 4  0 0 0

CELL_PARAMETERS angstrom
7.87594714964539 0.00000000000000 0.00000000000000
0.00000000000000 7.98987955848255 0.00000000000000
0.00000000000000 0.00000000000000 7.91261383028113

ATOMIC_POSITIONS angstrom
Pt -0.0069572113 -0.0027739426 -0.0050591679  
Pt -0.0024035978 1.9889257156 1.9921658864  
Pt 1.9673713703 -0.0030638199 1.9824605130  
Pt 1.9624665636 1.9854140877 0.0000774765  
Pt 0.0088486259 0.0039201064 3.9737861572  
Pt 0.0054019313 1.9909527065 5.9481758669  
Pt 1.9704208747 0.0076452112 5.9433947993  
Pt 1.9718562038 1.9800252863 3.9689468046  
Pt 0.0058531437 3.9703582619 -0.0066615881  
Pt -0.0065803236 5.9674201901 1.9798361739  
Pt 1.9598292849 3.9685118812 1.9764440792  
Pt 1.9733995250 5.9620659741 0.0075886872  
Pt -0.0069419491 3.9719573543 3.9686843064  
Pt 0.0033340129 5.9647945249 5.9581802486  
Pt 1.9667647121 3.9784933259 5.9441352804  
Pt 1.9607278787 5.9602017361 3.9779770038  
Pt 3.9288590789 -0.0087826935 -0.0079350132  
Pt 3.9316140778 1.9836753404 1.9744899024  
Pt 5.8942697289 0.0084982660 1.9886273254  
Pt 5.8956524894 1.9972256230 -0.0011368759  
Pt 3.9314098059 -0.0035864646 3.9596357135  
Pt 3.9280139916 1.9964673444 5.9483720888  
Pt 5.8992618198 -0.0032648800 5.9505264015  
Pt 5.8933558292 1.9795894635 3.9733051444  
Pt 3.9292082926 3.9796730691 -0.0023393598  
Pt 3.9231741730 5.9527243001 1.9884285041  
Pt 5.8963268548 3.9679460740 1.9769191063  
Pt 5.8854949846 5.9690556732 0.0071041255  
Pt 3.9342341639 3.9711229514 3.9777590878  
Pt 3.9348364882 5.9565866964 5.9455503503  
Pt 5.8847880769 3.9734474328 5.9570106750  
Pt 5.9032929250 5.9653406575 3.9634158384  

