&CONTROL
   calculation      = 'scf'
   restart_mode     = 'from_scratch'
   tprnfor          = .true.
   outdir           = './outdir'
   disk_io          = 'none'
   pseudo_dir       = '/scratch/ch24d003/pseudo'
/
&SYSTEM
   ibrav            = 0
   nat              = 32
   ntyp             = 1
   nbnd             = 346
   ecutwfc          = 70
   ecutrho          = 280
   occupations      = 'smearing'
   degauss          = 0.02
   smearing         = 'marzari-vanderbilt'
   input_dft        = 'PBE'
/
&ELECTRONS
   electron_maxstep = 200
   conv_thr         = 1e-06
   mixing_beta      = 0.1
   mixing_ndim      = 8
   diagonalization  = 'david'
/
&IONS
/
&CELL
/
&FCP
/
&RISM
/
ATOMIC_SPECIES
Pt 195.084 Pt_ONCV_PBE-1.2.upf

K_POINTS automatic
4 4 4  0 0 0

CELL_PARAMETERS angstrom
7.89483400000000 0.00000000000000 0.00000000000000
0.00000000000000 7.87004400000000 0.00000000000000
0.00000000000000 0.00000000000000 8.01469200000000

ATOMIC_POSITIONS angstrom
Pt 7.8769073000 7.8005860000 8.0106760000  
Pt 0.0720390400 2.0131257000 2.0415869000  
Pt 1.8841813000 7.8685560000 1.9384818000  
Pt 1.9167757000 2.0397613000 8.0049640000  
Pt 7.8839070000 0.0443666580 4.1216855000  
Pt 7.8744500000 1.9276053000 6.1364700000  
Pt 2.0269940000 0.0925422300 6.0158560000  
Pt 2.0390003000 1.9880933000 3.9147453000  
Pt 7.8703290000 3.9185946000 0.1353895500  
Pt 7.8885064000 5.9274030000 2.0877085000  
Pt 1.9872432000 4.0023017000 2.0872314000  
Pt 1.9710588000 5.8587284000 7.9763270000  
Pt 0.0298872000 3.9352684000 4.2064810000  
Pt 0.0315567440 5.8639526000 5.9861984000  
Pt 1.9877433000 3.9226036000 6.0816260000  
Pt 1.9698138000 6.0803150000 3.9313278000  
Pt 3.9657950000 0.0374725800 7.9506990000  
Pt 3.8192600000 1.8694301000 1.9520609000  
Pt 5.9903417000 0.0030998236 2.0847576000  
Pt 5.9087014000 1.8679461000 0.0434138070  
Pt 3.9420560000 7.8678784000 3.8939269000  
Pt 3.9905436000 1.8579541000 5.9194684000  
Pt 5.9337583000 7.8678860000 5.9802084000  
Pt 5.8965445000 1.9735981000 3.8861263000  
Pt 3.9435232000 3.9103030000 7.9540800000  
Pt 3.9947095000 5.9016890000 1.9118301000  
Pt 5.9003700000 4.0280223000 1.9947314000  
Pt 5.9880567000 5.8761560000 8.0141650000  
Pt 3.9511340000 3.9192932000 3.9516590000  
Pt 3.9431984000 5.8315053000 6.0622690000  
Pt 5.8802240000 3.8853357000 5.9734306000  
Pt 5.8416867000 5.9238257000 4.0363250000  

