&CONTROL
   calculation      = 'scf'
   restart_mode     = 'from_scratch'
   tprnfor          = .true.
   outdir           = './outdir'
   disk_io          = 'none'
   pseudo_dir       = '/scratch/ch24d003/pseudo'
/
&SYSTEM
   ibrav            = 0
   nat              = 32
   ntyp             = 1
   nbnd             = 346
   ecutwfc          = 70
   ecutrho          = 280
   occupations      = 'smearing'
   degauss          = 0.02
   smearing         = 'marzari-vanderbilt'
   input_dft        = 'PBE'
/
&ELECTRONS
   electron_maxstep = 200
   conv_thr         = 1e-06
   mixing_beta      = 0.1
   mixing_ndim      = 8
   diagonalization  = 'david'
/
&IONS
/
&CELL
/
&FCP
/
&RISM
/
ATOMIC_SPECIES
Pt 195.084 Pt_ONCV_PBE-1.2.upf

K_POINTS automatic
4 4 4  0 0 0

CELL_PARAMETERS angstrom
7.89483400000000 0.00000000000000 0.00000000000000
0.00000000000000 7.87004400000000 0.00000000000000
0.00000000000000 0.00000000000000 8.01469200000000

ATOMIC_POSITIONS angstrom
Pt 7.7636360000 0.0075939437 7.9783864000  
Pt 0.1005961750 1.9139373000 1.9203616000  
Pt 1.8590076000 7.8694690000 2.0197093000  
Pt 2.0808700000 2.0463230000 7.9998193000  
Pt 0.0107049070 0.0269096360 3.9870570000  
Pt 7.8871710000 1.9150515000 6.1254644000  
Pt 1.9888858000 0.0244687000 6.0599546000  
Pt 2.1640127000 2.0182126000 3.9913702000  
Pt 7.8577833000 3.9109294000 0.0420534400  
Pt 7.7929835000 5.8481627000 2.0128353000  
Pt 1.9099108000 3.8669913000 2.0670016000  
Pt 1.8878936000 5.8602786000 0.0448690400  
Pt 0.0827679000 3.8051260000 4.0675974000  
Pt 7.8858647000 5.9452380000 6.0897820000  
Pt 1.9647062000 3.9072242000 5.9135714000  
Pt 1.9316334000 5.8865560000 4.1239905000  
Pt 3.9181035000 7.6945925000 7.9889840000  
Pt 3.9524677000 2.0046756000 1.9351747000  
Pt 5.9793130000 7.8529844000 1.9373828000  
Pt 5.7882730000 2.0655277000 7.9649850000  
Pt 3.8614657000 0.0146870585 3.9707665000  
Pt 4.0792760000 2.0654390000 5.9337960000  
Pt 5.9428186000 7.8254530000 6.0326095000  
Pt 6.0125400000 1.7933835000 3.9686007000  
Pt 3.8865585000 3.9587252000 7.9901460000  
Pt 3.7432640000 5.8950496000 2.0279780000  
Pt 5.9453030000 3.8344767000 2.1352077000  
Pt 5.9269385000 5.9250674000 7.9228630000  
Pt 4.0669303000 4.1379285000 4.0112320000  
Pt 4.0868134000 5.9609220000 6.0372330000  
Pt 5.9650373000 3.9974573000 5.9720940000  
Pt 5.8767680000 6.0263586000 4.0130280000  

