&CONTROL
   calculation      = 'scf'
   restart_mode     = 'from_scratch'
   tprnfor          = .true.
   outdir           = './outdir'
   disk_io          = 'none'
   pseudo_dir       = './../pseudo'
/
&SYSTEM
   ibrav            = 0
   nat              = 32
   ntyp             = 1
   nbnd             = 346
   ecutwfc          = 70
   ecutrho          = 280
   occupations      = 'smearing'
   degauss          = 0.02
   smearing         = 'marzari-vanderbilt'
   input_dft        = 'PBE'
/
&ELECTRONS
   electron_maxstep = 200
   conv_thr         = 1e-06
   mixing_beta      = 0.1
   mixing_ndim      = 8
   diagonalization  = 'david'
/
&IONS
/
&CELL
/
&FCP
/
&RISM
/
ATOMIC_SPECIES
Pt 195.084 Pt_ONCV_PBE-1.2.upf

K_POINTS automatic
4 4 4  0 0 0

CELL_PARAMETERS angstrom
7.90018777536316 0.00000000000000 0.00000000000000
0.00000000000000 7.92518807312639 0.00000000000000
0.00000000000000 0.00000000000000 7.99373443372461

ATOMIC_POSITIONS angstrom
Pt -0.0065824872 0.0012086969 0.0039511279  
Pt 0.0050929118 1.9954746781 2.0059431620  
Pt 1.9684999344 0.0045886043 1.9987898898  
Pt 1.9557664734 1.9837393323 -0.0016541492  
Pt 0.0073659203 0.0049909003 4.0117643756  
Pt 0.0061912680 1.9914344250 6.0006914506  
Pt 1.9628414893 0.0052050012 6.0151237419  
Pt 1.9727172759 1.9831572520 4.0067264811  
Pt 0.0034396909 3.9772618663 -0.0055404779  
Pt -0.0046013168 5.9576679219 1.9950147029  
Pt 1.9702259195 3.9753611639 2.0060904779  
Pt 1.9721538092 5.9573124952 0.0053856312  
Pt -0.0033899790 3.9707459199 4.0083466481  
Pt 0.0093154326 5.9608312576 6.0022679430  
Pt 1.9546726441 3.9674866483 6.0030462382  
Pt 1.9684016498 5.9673708545 4.0080716296  
Pt 3.9340003706 -0.0008168767 0.0068628698  
Pt 3.9199070449 1.9887540924 2.0070474912  
Pt 5.8967120736 0.0099326009 2.0020845485  
Pt 5.8827741424 1.9798291288 0.0030258073  
Pt 3.9365180310 0.0001253318 4.0011944163  
Pt 3.9247052389 1.9814768666 6.0049363285  
Pt 5.8990707908 0.0013493410 6.0184869903  
Pt 5.8957743115 1.9961222868 3.9985198487  
Pt 3.9176789871 3.9676795256 0.0003770916  
Pt 3.9223672758 5.9665892947 1.9944553193  
Pt 5.8818174774 3.9681865077 1.9977322841  
Pt 5.8880415217 5.9669586662 -0.0067351895  
Pt 3.9190830958 3.9740639113 3.9982921877  
Pt 3.9243600556 5.9645070268 6.0021588934  
Pt 5.8812386006 3.9735991411 6.0123054940  
Pt 5.8836141960 5.9712605760 4.0096929228  

