&CONTROL
   calculation      = 'scf'
   restart_mode     = 'from_scratch'
   tprnfor          = .true.
   outdir           = './outdir'
   disk_io          = 'none'
   pseudo_dir       = './../pseudo'
/
&SYSTEM
   ibrav            = 0
   nat              = 32
   ntyp             = 1
   nbnd             = 346
   ecutwfc          = 70
   ecutrho          = 280
   occupations      = 'smearing'
   degauss          = 0.02
   smearing         = 'marzari-vanderbilt'
   input_dft        = 'PBE'
/
&ELECTRONS
   electron_maxstep = 200
   conv_thr         = 1e-06
   mixing_beta      = 0.1
   mixing_ndim      = 8
   diagonalization  = 'david'
/
&IONS
/
&CELL
/
&FCP
/
&RISM
/
ATOMIC_SPECIES
Pt 195.084 Pt_ONCV_PBE-1.2.upf

K_POINTS automatic
4 4 4  0 0 0

CELL_PARAMETERS angstrom
7.95039418773718 0.00000000000000 0.00000000000000
0.00000000000000 7.95998217477259 0.00000000000000
0.00000000000000 0.00000000000000 7.91624979587366

ATOMIC_POSITIONS angstrom
Pt 0.0018338778 0.0000223665 0.0031299579  
Pt -0.0079696119 1.9963283240 1.9759798238  
Pt 2.0057139041 -0.0078821657 1.9819562565  
Pt 1.9991698206 1.9974622260 0.0085661397  
Pt 0.0086245160 0.0018241903 3.9392844766  
Pt 0.0042058851 1.9881708373 5.9149483535  
Pt 2.0089399974 -0.0060305376 5.9214355693  
Pt 1.9987269514 1.9825889587 3.9539411707  
Pt 0.0074519976 3.9779722755 0.0012563185  
Pt 0.0079729601 5.9734017930 1.9763360158  
Pt 2.0107705586 3.9896664768 1.9668817413  
Pt 1.9964545185 5.9846004331 -0.0081892793  
Pt 0.0089459737 3.9805991653 3.9377065863  
Pt -0.0073720530 5.9693601567 5.9195489822  
Pt 2.0004586715 3.9913178330 5.9230485298  
Pt 1.9981691950 5.9758083940 3.9397217207  
Pt 4.0108502723 0.0016768076 -0.0029530774  
Pt 4.0019625648 1.9890427436 1.9664462054  
Pt 6.0105725539 -0.0008392901 1.9792654299  
Pt 6.0147839894 1.9975874085 -0.0067408528  
Pt 3.9984605648 0.0036406445 3.9495161499  
Pt 4.0011385749 1.9903093680 5.9266944215  
Pt 6.0184318033 -0.0028566583 5.9136762453  
Pt 6.0067127765 1.9906191851 3.9402515132  
Pt 4.0088633787 3.9836027186 -0.0092231868  
Pt 4.0058930789 5.9823024549 1.9670673550  
Pt 6.0158239046 3.9890941132 1.9740194108  
Pt 6.0148748561 5.9862526610 -0.0053838057  
Pt 3.9983348593 3.9792355286 3.9493601977  
Pt 4.0138603213 5.9716372622 5.9092629247  
Pt 6.0209740009 3.9767933479 5.9284826842  
Pt 6.0182948900 5.9676764363 3.9493540321  

