&CONTROL
   calculation      = 'scf'
   restart_mode     = 'from_scratch'
   tprnfor          = .true.
   outdir           = './outdir'
   disk_io          = 'none'
   pseudo_dir       = './../pseudo'
/
&SYSTEM
   ibrav            = 0
   nat              = 32
   ntyp             = 1
   nbnd             = 346
   ecutwfc          = 70
   ecutrho          = 280
   occupations      = 'smearing'
   degauss          = 0.02
   smearing         = 'marzari-vanderbilt'
   input_dft        = 'PBE'
/
&ELECTRONS
   electron_maxstep = 200
   conv_thr         = 1e-06
   mixing_beta      = 0.1
   mixing_ndim      = 8
   diagonalization  = 'david'
/
&IONS
/
&CELL
/
&FCP
/
&RISM
/
ATOMIC_SPECIES
Pt 195.084 Pt_ONCV_PBE-1.2.upf

K_POINTS automatic
4 4 4  0 0 0

CELL_PARAMETERS angstrom
7.97314365375095 0.00000000000000 0.00000000000000
0.00000000000000 8.00393786479319 0.00000000000000
0.00000000000000 0.00000000000000 7.92306592999251

ATOMIC_POSITIONS angstrom
Pt 0.0005334791 -0.0086440642 -0.0089303873  
Pt 0.0000979014 2.0060116293 1.9670762867  
Pt 2.0064783886 0.0019715767 1.9722492113  
Pt 2.0023839654 1.9971265176 0.0085195151  
Pt 0.0082824245 -0.0082365831 3.9252402458  
Pt 0.0011692385 2.0050959789 5.8988935781  
Pt 2.0111568129 -0.0014571918 5.8867567443  
Pt 2.0052174184 2.0055520750 3.9213887013  
Pt 0.0057824572 3.9935121899 0.0039807063  
Pt -0.0054046146 6.0041617504 1.9691955818  
Pt 2.0113062794 3.9953126441 1.9659717219  
Pt 1.9922324121 6.0037265215 0.0012929458  
Pt -0.0091489255 3.9932078640 3.9279436464  
Pt -0.0052130236 5.9963594091 5.9048233262  
Pt 1.9959475568 4.0071710261 5.8861933429  
Pt 1.9938425628 6.0039139208 3.9294010962  
Pt 3.9991733795 0.0074682368 -0.0029457790  
Pt 4.0055847379 1.9895661597 1.9742594927  
Pt 6.0067128186 0.0015851450 1.9554937577  
Pt 6.0161709052 1.9928199491 0.0041555161  
Pt 3.9956461553 0.0090140209 3.9348080513  
Pt 4.0003427613 1.9989806191 5.8915259066  
Pt 6.0072668302 -0.0086302048 5.8891540260  
Pt 6.0050116971 2.0073563413 3.9333711751  
Pt 3.9979657637 4.0051475792 -0.0065449406  
Pt 3.9968855685 6.0041653132 1.9729465217  
Pt 5.9972631303 4.0027252833 1.9737948395  
Pt 6.0093409762 6.0059240357 0.0085254197  
Pt 3.9986352472 3.9935102313 3.9365877098  
Pt 4.0060642795 5.9888642014 5.9049785027  
Pt 5.9993204859 4.0055569049 5.8922872753  
Pt 6.0131587009 5.9883344649 3.9379200899  

