&CONTROL
   calculation      = 'scf'
   restart_mode     = 'from_scratch'
   tprnfor          = .true.
   outdir           = './outdir'
   disk_io          = 'none'
   pseudo_dir       = '/scratch/ch24d003/pseudo'
/
&SYSTEM
   ibrav            = 0
   nat              = 32
   ntyp             = 1
   nbnd             = 346
   ecutwfc          = 70
   ecutrho          = 280
   occupations      = 'smearing'
   degauss          = 0.02
   smearing         = 'marzari-vanderbilt'
   input_dft        = 'PBE'
/
&ELECTRONS
   electron_maxstep = 200
   conv_thr         = 1e-06
   mixing_beta      = 0.1
   mixing_ndim      = 8
   diagonalization  = 'david'
/
&IONS
/
&CELL
/
&FCP
/
&RISM
/
ATOMIC_SPECIES
Pt 195.084 Pt_ONCV_PBE-1.2.upf

K_POINTS automatic
4 4 4  0 0 0

CELL_PARAMETERS angstrom
7.89483400000000 0.00000000000000 0.00000000000000
0.00000000000000 7.87004400000000 0.00000000000000
0.00000000000000 0.00000000000000 8.01469200000000

ATOMIC_POSITIONS angstrom
Pt 7.8813370000 7.8659883000 7.8535333000  
Pt 7.8907930000 1.9030970000 1.9544184000  
Pt 2.0315034000 0.0429568400 1.8803952000  
Pt 2.0027876000 1.9848020000 7.9392110000  
Pt 0.0090125290 0.0506090300 3.9343991000  
Pt 7.8481650000 2.0145662000 5.9689355000  
Pt 2.0685565000 7.8025246000 6.0355387000  
Pt 1.9971923000 1.9832207000 4.1012597000  
Pt 7.8705890000 3.8961205000 0.0029172462  
Pt 0.0719542300 5.7972520000 1.9022373000  
Pt 1.9545187000 3.9472620000 2.0634513000  
Pt 1.8513460000 5.8854775000 0.0205898750  
Pt 0.0494614170 3.8878253000 4.0786700000  
Pt 0.0678055000 5.9202843000 5.9418200000  
Pt 1.8062626000 3.9231622000 6.1282067000  
Pt 1.8670645000 5.9313183000 4.0274290000  
Pt 3.9941912000 7.8506136000 0.1011661960  
Pt 3.9247065000 2.0200722000 2.0581546000  
Pt 5.9341320000 7.7447543000 2.0413468000  
Pt 5.9593506000 1.9279499000 0.1504555600  
Pt 3.8528140000 7.7551500000 4.0518346000  
Pt 4.0873280000 1.9685621000 6.2197970000  
Pt 5.9671390000 0.0743187500 5.8242510000  
Pt 5.9228530000 1.9486519000 3.8714864000  
Pt 3.9162223000 3.9428651000 0.0543205400  
Pt 3.9713464000 5.9051023000 1.9294289000  
Pt 5.8900140000 4.1263360000 2.0199194000  
Pt 5.8688464000 5.8442793000 7.8443320000  
Pt 3.9185407000 3.9526840000 4.2521560000  
Pt 3.8934462000 5.9717580000 6.0435963000  
Pt 5.9384230000 3.9920933000 5.9057380000  
Pt 5.9977620000 5.9135860000 4.0408306000  

