&CONTROL
   calculation      = 'scf'
   restart_mode     = 'from_scratch'
   tprnfor          = .true.
   outdir           = './outdir'
   disk_io          = 'none'
   pseudo_dir       = './../pseudo'
/
&SYSTEM
   ibrav            = 0
   nat              = 32
   ntyp             = 1
   nbnd             = 346
   ecutwfc          = 70
   ecutrho          = 280
   occupations      = 'smearing'
   degauss          = 0.02
   smearing         = 'marzari-vanderbilt'
   input_dft        = 'PBE'
/
&ELECTRONS
   electron_maxstep = 200
   conv_thr         = 1e-06
   mixing_beta      = 0.1
   mixing_ndim      = 8
   diagonalization  = 'david'
/
&IONS
/
&CELL
/
&FCP
/
&RISM
/
ATOMIC_SPECIES
Pt 195.084 Pt_ONCV_PBE-1.2.upf

K_POINTS automatic
4 4 4  0 0 0

CELL_PARAMETERS angstrom
7.96317797928421 0.00000000000000 0.00000000000000
0.00000000000000 7.91268160668479 0.00000000000000
0.00000000000000 0.00000000000000 7.89525706708136

ATOMIC_POSITIONS angstrom
Pt -0.0046004343 -0.0038988430 0.0098216304  
Pt -0.0018265081 1.9603831501 1.9650155218  
Pt 1.9806639213 0.0097498793 1.9718433050  
Pt 1.9895628001 1.9541754615 -0.0020407170  
Pt 0.0055945622 -0.0066558719 3.9312809132  
Pt 0.0060941411 1.9609309557 5.8957698148  
Pt 1.9874172667 -0.0075369087 5.8866343580  
Pt 1.9806746571 1.9585867037 3.9237629860  
Pt 0.0024971296 3.9315400474 0.0032450482  
Pt 0.0098952713 5.8887362853 1.9583699889  
Pt 1.9848128303 3.9166871821 1.9578052832  
Pt 1.9957809112 5.8792617975 -0.0095875150  
Pt 0.0021676458 3.9247409685 3.9368788225  
Pt 0.0050417153 5.8957798183 5.9021034569  
Pt 1.9944383032 3.9193828243 5.8968384291  
Pt 1.9864843028 5.8886804347 3.9251753886  
Pt 3.9672671661 0.0061287786 0.0027046351  
Pt 3.9686807970 1.9626612263 1.9640578187  
Pt 5.9610051502 0.0088008371 1.9601195187  
Pt 5.9679498801 1.9694210312 0.0075531582  
Pt 3.9757721389 0.0058596308 3.9218741882  
Pt 3.9646351956 1.9634517509 5.9048116340  
Pt 5.9705187397 -0.0037344710 5.8980406082  
Pt 5.9521375445 1.9558044693 3.9242268424  
Pt 3.9717457835 3.9261401491 -0.0045151211  
Pt 3.9801380027 5.8793857511 1.9565589921  
Pt 5.9651940991 3.9186465073 1.9721066697  
Pt 5.9603289316 5.8783547867 0.0026136303  
Pt 3.9730147700 3.9231064455 3.9218147367  
Pt 3.9744090040 5.8831636034 5.8999217833  
Pt 5.9590883678 3.9326514316 5.8896038259  
Pt 5.9631618653 5.8905487748 3.9304286020  

