&CONTROL
   calculation      = 'scf'
   restart_mode     = 'from_scratch'
   tprnfor          = .true.
   outdir           = './outdir'
   disk_io          = 'none'
   pseudo_dir       = './../pseudo'
/
&SYSTEM
   ibrav            = 0
   nat              = 32
   ntyp             = 1
   nbnd             = 346
   ecutwfc          = 70
   ecutrho          = 280
   occupations      = 'smearing'
   degauss          = 0.02
   smearing         = 'marzari-vanderbilt'
   input_dft        = 'PBE'
/
&ELECTRONS
   electron_maxstep = 200
   conv_thr         = 1e-06
   mixing_beta      = 0.1
   mixing_ndim      = 8
   diagonalization  = 'david'
/
&IONS
/
&CELL
/
&FCP
/
&RISM
/
ATOMIC_SPECIES
Pt 195.084 Pt_ONCV_PBE-1.2.upf

K_POINTS automatic
4 4 4  0 0 0

CELL_PARAMETERS angstrom
7.96800867636488 0.00000000000000 0.00000000000000
0.00000000000000 7.97034226728730 0.00000000000000
0.00000000000000 0.00000000000000 7.99071628827889

ATOMIC_POSITIONS angstrom
Pt 0.0014441834 -0.0007380355 -0.0037539670  
Pt -0.0003032131 1.9873293283 1.9938451984  
Pt 1.9812178025 0.0076018455 1.9993917571  
Pt 1.9794399015 1.9921739561 -0.0074201035  
Pt 0.0079966380 0.0059655202 3.9806360782  
Pt -0.0028253399 1.9808496600 5.9753832035  
Pt 1.9943043295 -0.0038079192 5.9723726971  
Pt 1.9875625508 1.9827535263 3.9868427863  
Pt -0.0046720735 3.9797889798 0.0003548488  
Pt -0.0016014355 5.9642687885 1.9888442261  
Pt 1.9955186086 3.9716639361 1.9989658327  
Pt 1.9949723845 5.9696017042 -0.0091651044  
Pt 0.0015424074 3.9686138129 3.9708843427  
Pt 0.0062095978 5.9690015546 5.9641908975  
Pt 1.9823882599 3.9786014577 5.9736557129  
Pt 1.9915183730 5.9651778830 3.9710945581  
Pt 3.9687821292 -0.0010843595 0.0034478554  
Pt 3.9840064546 1.9868442631 1.9833469875  
Pt 5.9593847199 -0.0017940463 1.9888319050  
Pt 5.9734998302 1.9889901525 -0.0002741218  
Pt 3.9707513266 0.0001460375 3.9728508128  
Pt 3.9743769442 1.9888888175 5.9776160053  
Pt 5.9630868432 0.0051820900 5.9674663375  
Pt 5.9612863804 1.9936154592 3.9749987539  
Pt 3.9834687234 3.9809261589 -0.0039536978  
Pt 3.9683944805 5.9589828127 1.9844758332  
Pt 5.9721176378 3.9797618930 1.9810066376  
Pt 5.9632886370 5.9620972033 0.0051495623  
Pt 3.9792885520 3.9791211410 3.9750811737  
Pt 3.9739603790 5.9708368837 5.9680653259  
Pt 5.9723579058 3.9695318707 5.9785236433  
Pt 5.9599346144 5.9647713496 3.9736030599  

