&CONTROL
   calculation      = 'scf'
   restart_mode     = 'from_scratch'
   tprnfor          = .true.
   outdir           = './outdir'
   disk_io          = 'none'
   pseudo_dir       = './../pseudo'
/
&SYSTEM
   ibrav            = 0
   nat              = 32
   ntyp             = 1
   nbnd             = 346
   ecutwfc          = 70
   ecutrho          = 280
   occupations      = 'smearing'
   degauss          = 0.02
   smearing         = 'marzari-vanderbilt'
   input_dft        = 'PBE'
/
&ELECTRONS
   electron_maxstep = 200
   conv_thr         = 1e-06
   mixing_beta      = 0.1
   mixing_ndim      = 8
   diagonalization  = 'david'
/
&IONS
/
&CELL
/
&FCP
/
&RISM
/
ATOMIC_SPECIES
Pt 195.084 Pt_ONCV_PBE-1.2.upf

K_POINTS automatic
4 4 4  0 0 0

CELL_PARAMETERS angstrom
7.90526388558910 0.00000000000000 0.00000000000000
0.00000000000000 7.96493411452955 0.00000000000000
0.00000000000000 0.00000000000000 7.92452578478439

ATOMIC_POSITIONS angstrom
Pt -0.0079652438 0.0018734180 0.0014723647  
Pt 0.0024049205 1.9990349527 1.9656637808  
Pt 1.9751259688 0.0091925895 1.9799849672  
Pt 1.9773086477 1.9827068474 0.0056684052  
Pt -0.0094246815 -0.0001510405 3.9442322840  
Pt -0.0039510103 1.9818487595 5.9152938532  
Pt 1.9646945531 -0.0060516833 5.9041941298  
Pt 1.9756794466 1.9976694850 3.9380872732  
Pt 0.0055225236 3.9870422078 0.0096814809  
Pt 0.0063446302 5.9806942463 1.9743260275  
Pt 1.9627546789 3.9820289939 1.9717930638  
Pt 1.9685132163 5.9756584820 -0.0032395124  
Pt -0.0015390283 3.9922718973 3.9358959843  
Pt -0.0056981223 5.9733418457 5.9205260463  
Pt 1.9664498776 3.9779132764 5.9130358859  
Pt 1.9743449963 5.9831410209 3.9503113179  
Pt 3.9375268946 0.0045226947 0.0013304139  
Pt 3.9442297982 2.0003830057 1.9617006068  
Pt 5.9105497136 0.0021723200 1.9759564667  
Pt 5.9077511671 1.9922405221 -0.0039205994  
Pt 3.9358363381 0.0009180948 3.9463050253  
Pt 3.9379673528 1.9964700834 5.9097028045  
Pt 5.9094417510 -0.0090443045 5.9129107419  
Pt 5.9088892638 1.9901215082 3.9394211396  
Pt 3.9491279024 3.9736762539 -0.0011871165  
Pt 3.9397976073 5.9737311904 1.9689254384  
Pt 5.9188568539 3.9903485827 1.9675067054  
Pt 5.9195685000 5.9753103018 0.0084499330  
Pt 3.9400333438 3.9924677779 3.9321253708  
Pt 3.9431879764 5.9780284745 5.9121629541  
Pt 5.9051001767 3.9822927478 5.9036929871  
Pt 5.9080511754 5.9733757321 3.9492377783  

