&CONTROL
   calculation      = 'scf'
   restart_mode     = 'from_scratch'
   tprnfor          = .true.
   outdir           = './outdir'
   disk_io          = 'none'
   pseudo_dir       = './../pseudo'
/
&SYSTEM
   ibrav            = 0
   nat              = 32
   ntyp             = 1
   nbnd             = 346
   ecutwfc          = 70
   ecutrho          = 280
   occupations      = 'smearing'
   degauss          = 0.02
   smearing         = 'marzari-vanderbilt'
   input_dft        = 'PBE'
/
&ELECTRONS
   electron_maxstep = 200
   conv_thr         = 1e-06
   mixing_beta      = 0.1
   mixing_ndim      = 8
   diagonalization  = 'david'
/
&IONS
/
&CELL
/
&FCP
/
&RISM
/
ATOMIC_SPECIES
Pt 195.084 Pt_ONCV_PBE-1.2.upf

K_POINTS automatic
4 4 4  0 0 0

CELL_PARAMETERS angstrom
7.97599228483590 0.00000000000000 0.00000000000000
0.00000000000000 7.95384946752963 0.00000000000000
0.00000000000000 0.00000000000000 7.89619215139396

ATOMIC_POSITIONS angstrom
Pt 0.0076903737 0.0033934303 0.0033700727  
Pt 0.0073704701 1.9856423396 1.9692593714  
Pt 2.0143113468 0.0087234815 1.9809342250  
Pt 1.9986122116 1.9788635649 0.0079996358  
Pt 0.0020696698 -0.0039750411 3.9423663543  
Pt 0.0075687555 1.9933449014 5.9284910741  
Pt 2.0021760780 0.0056525460 5.9238416274  
Pt 1.9977349511 1.9824079719 3.9523926773  
Pt 0.0007936873 3.9741570961 0.0043970410  
Pt -0.0042570307 5.9590597583 1.9782416641  
Pt 2.0071606881 3.9778560623 1.9698923551  
Pt 2.0004343222 5.9613130625 0.0039330845  
Pt -0.0088407076 3.9755174066 3.9478472179  
Pt 0.0037294536 5.9461956079 5.9260950365  
Pt 2.0063227671 3.9778014269 5.9145330044  
Pt 2.0000107238 5.9598409542 3.9497483233  
Pt 4.0144186857 0.0035444994 0.0094906725  
Pt 4.0055265444 1.9900535288 1.9817828174  
Pt 6.0174947773 -0.0014439026 1.9725949959  
Pt 6.0136778950 1.9866088117 -0.0033297361  
Pt 4.0204371404 -0.0059436244 3.9553378114  
Pt 4.0225209394 1.9819114388 5.9301239340  
Pt 6.0127225443 0.0041845100 5.9257572679  
Pt 6.0253619144 1.9786210328 3.9529733525  
Pt 4.0160986150 3.9695552389 0.0020822460  
Pt 4.0173066490 5.9563365410 1.9698499818  
Pt 6.0127616030 3.9708208346 1.9796334854  
Pt 6.0306281732 5.9610557187 -0.0096861729  
Pt 4.0079494915 3.9637554830 3.9391254172  
Pt 4.0135403416 5.9427913558 5.9145581098  
Pt 6.0187507536 3.9587777479 5.9317175501  
Pt 6.0141081540 5.9467088947 3.9474680855  

