&CONTROL
   calculation      = 'scf'
   restart_mode     = 'from_scratch'
   tprnfor          = .true.
   outdir           = './outdir'
   disk_io          = 'none'
   pseudo_dir       = './../pseudo'
/
&SYSTEM
   ibrav            = 0
   nat              = 32
   ntyp             = 1
   nbnd             = 346
   ecutwfc          = 70
   ecutrho          = 280
   occupations      = 'smearing'
   degauss          = 0.02
   smearing         = 'marzari-vanderbilt'
   input_dft        = 'PBE'
/
&ELECTRONS
   electron_maxstep = 200
   conv_thr         = 1e-06
   mixing_beta      = 0.1
   mixing_ndim      = 8
   diagonalization  = 'david'
/
&IONS
/
&CELL
/
&FCP
/
&RISM
/
ATOMIC_SPECIES
Pt 195.084 Pt_ONCV_PBE-1.2.upf

K_POINTS automatic
4 4 4  0 0 0

CELL_PARAMETERS angstrom
7.91330596178234 0.00000000000000 0.00000000000000
0.00000000000000 7.95464959450914 0.00000000000000
0.00000000000000 0.00000000000000 7.91821652217349

ATOMIC_POSITIONS angstrom
Pt -0.0086408206 -0.0093013585 0.0005905496  
Pt -0.0036996807 2.0017221052 1.9845024209  
Pt 1.9901833545 0.0055205341 1.9785759655  
Pt 1.9905942598 1.9968532338 0.0006603018  
Pt 0.0084445809 -0.0037518971 3.9698999435  
Pt 0.0012229357 1.9947977422 5.9665040112  
Pt 1.9835609131 -0.0034246214 5.9578728786  
Pt 1.9819100945 2.0023446929 3.9706225316  
Pt -0.0047695634 4.0000317584 0.0007657685  
Pt -0.0049913090 5.9993209161 1.9914315210  
Pt 1.9930738715 3.9996516585 1.9797970505  
Pt 1.9812571372 6.0072414113 -0.0057274160  
Pt -0.0057795403 4.0084959592 3.9811563913  
Pt 0.0018019323 5.9969529062 5.9595062509  
Pt 1.9864177438 3.9923251057 5.9691291637  
Pt 1.9955079332 6.0048502448 3.9812174533  
Pt 3.9795799276 0.0095383879 0.0019640575  
Pt 3.9742995567 2.0052976935 1.9798203735  
Pt 5.9583383192 0.0036458694 1.9928431942  
Pt 5.9666511573 1.9927966096 -0.0038405626  
Pt 3.9669715978 0.0018016680 3.9671207435  
Pt 3.9851785146 2.0068005169 5.9649646417  
Pt 5.9640442146 -0.0006941060 5.9570613911  
Pt 5.9555273713 1.9993794079 3.9850364905  
Pt 3.9693978998 4.0094620605 -0.0032726031  
Pt 3.9665105118 5.9979733126 1.9916240164  
Pt 5.9727483670 4.0087081690 1.9927829706  
Pt 5.9560920183 6.0112582126 -0.0083090801  
Pt 3.9718611792 4.0026883975 3.9793386374  
Pt 3.9770517569 5.9924571922 5.9667121990  
Pt 5.9689558003 4.0040978416 5.9687857975  
Pt 5.9585407532 6.0014817876 3.9809295092  

