&CONTROL
   calculation      = 'scf'
   restart_mode     = 'from_scratch'
   tprnfor          = .true.
   outdir           = './outdir'
   disk_io          = 'none'
   pseudo_dir       = './../pseudo'
/
&SYSTEM
   ibrav            = 0
   nat              = 32
   ntyp             = 1
   nbnd             = 346
   ecutwfc          = 70
   ecutrho          = 280
   occupations      = 'smearing'
   degauss          = 0.02
   smearing         = 'marzari-vanderbilt'
   input_dft        = 'PBE'
/
&ELECTRONS
   electron_maxstep = 200
   conv_thr         = 1e-06
   mixing_beta      = 0.1
   mixing_ndim      = 8
   diagonalization  = 'david'
/
&IONS
/
&CELL
/
&FCP
/
&RISM
/
ATOMIC_SPECIES
Pt 195.084 Pt_ONCV_PBE-1.2.upf

K_POINTS automatic
4 4 4  0 0 0

CELL_PARAMETERS angstrom
7.90414614855293 0.00000000000000 0.00000000000000
0.00000000000000 7.92769081757894 0.00000000000000
0.00000000000000 0.00000000000000 7.86793094156240

ATOMIC_POSITIONS angstrom
Pt -0.0000241799 -0.0083193796 0.0042876042  
Pt -0.0009528783 1.9674304916 1.9660868499  
Pt 1.9932033787 0.0090642642 1.9611479601  
Pt 1.9806324424 1.9611724184 -0.0088377944  
Pt -0.0015992802 0.0034680227 3.9256549964  
Pt -0.0015993947 1.9709812241 5.8793850097  
Pt 1.9763265058 -0.0057685044 5.8774532238  
Pt 1.9944071063 1.9653575259 3.9194553670  
Pt -0.0067452122 3.9265324614 -0.0047053078  
Pt -0.0007814087 5.8903856087 1.9555868799  
Pt 1.9780529353 3.9342752861 1.9495747273  
Pt 1.9928780352 5.8950421272 -0.0047212132  
Pt 0.0091882511 3.9232913200 3.9179212957  
Pt 0.0015233392 5.8899004155 5.8827601761  
Pt 1.9902719322 3.9311326273 5.8738229075  
Pt 1.9884728581 5.9045145590 3.9122780363  
Pt 3.9781892024 0.0095416406 -0.0015594613  
Pt 3.9699129132 1.9618424886 1.9578471481  
Pt 5.9559053767 0.0026418808 1.9535745288  
Pt 5.9562822966 1.9590549194 -0.0046475721  
Pt 3.9628437882 0.0098410370 3.9193577936  
Pt 3.9772271087 1.9734864010 5.8721803108  
Pt 5.9599871848 0.0074816589 5.8746878668  
Pt 5.9487335653 1.9631781637 3.9101009050  
Pt 3.9753496409 3.9336057240 0.0057946749  
Pt 3.9778534824 5.9019374538 1.9559872013  
Pt 5.9581666064 3.9354266076 1.9514437898  
Pt 5.9628711788 5.8895478008 0.0011317604  
Pt 3.9783501050 3.9389432654 3.9127687286  
Pt 3.9628137971 5.8926949677 5.8769170116  
Pt 5.9638098727 3.9302551373 5.8769271008  
Pt 5.9560250109 5.8880810892 3.9259228881  

