&CONTROL
   calculation      = 'scf'
   restart_mode     = 'from_scratch'
   tprnfor          = .true.
   outdir           = './outdir'
   disk_io          = 'none'
   pseudo_dir       = './../pseudo'
/
&SYSTEM
   ibrav            = 0
   nat              = 32
   ntyp             = 1
   nbnd             = 346
   ecutwfc          = 70
   ecutrho          = 280
   occupations      = 'smearing'
   degauss          = 0.02
   smearing         = 'marzari-vanderbilt'
   input_dft        = 'PBE'
/
&ELECTRONS
   electron_maxstep = 200
   conv_thr         = 1e-06
   mixing_beta      = 0.1
   mixing_ndim      = 8
   diagonalization  = 'david'
/
&IONS
/
&CELL
/
&FCP
/
&RISM
/
ATOMIC_SPECIES
Pt 195.084 Pt_ONCV_PBE-1.2.upf

K_POINTS automatic
4 4 4  0 0 0

CELL_PARAMETERS angstrom
7.95799850433729 0.00000000000000 0.00000000000000
0.00000000000000 7.92540664536242 0.00000000000000
0.00000000000000 0.00000000000000 7.87257690325184

ATOMIC_POSITIONS angstrom
Pt 0.0050644674 0.0068336287 0.0036050849  
Pt 0.0004231283 1.9947766567 1.9812279058  
Pt 1.9873856792 -0.0022071838 1.9840764254  
Pt 1.9902378123 1.9872591207 -0.0066013120  
Pt 0.0033684785 -0.0008363152 3.9770727280  
Pt -0.0057945975 2.0034687909 5.9506945149  
Pt 1.9779789654 0.0038122902 5.9487331987  
Pt 1.9898911192 1.9972618206 3.9630991393  
Pt 0.0026647885 3.9867103225 -0.0042270972  
Pt -0.0067276088 5.9753201934 1.9813250916  
Pt 1.9867391243 3.9947847409 1.9788748471  
Pt 1.9938086094 5.9754078599 0.0049093496  
Pt -0.0057224453 3.9793010527 3.9753697776  
Pt 0.0017872845 5.9884018236 5.9657317061  
Pt 1.9903648536 3.9836062276 5.9506719925  
Pt 1.9904642207 5.9922246668 3.9713782180  
Pt 3.9765071162 0.0092264219 -0.0022250739  
Pt 3.9739054697 1.9853975155 1.9822621942  
Pt 5.9570209194 0.0090377978 1.9798351527  
Pt 5.9521547025 1.9867732883 -0.0084546234  
Pt 3.9625384918 0.0084069192 3.9786627255  
Pt 3.9689827608 2.0005220666 5.9516154307  
Pt 5.9634026145 -0.0001433648 5.9585724571  
Pt 5.9550400986 2.0012936918 3.9683988749  
Pt 3.9637257546 3.9878242096 -0.0012908131  
Pt 3.9623335948 5.9807245522 1.9882028955  
Pt 5.9540376988 3.9897977892 1.9861235942  
Pt 5.9665572692 5.9819601824 -0.0037397072  
Pt 3.9709633829 3.9973064224 3.9811633100  
Pt 3.9700116778 5.9903413708 5.9672252922  
Pt 5.9595771496 3.9911352077 5.9652763951  
Pt 5.9624515588 5.9787190709 3.9627698401  

