&CONTROL
   calculation      = 'scf'
   restart_mode     = 'from_scratch'
   tprnfor          = .true.
   outdir           = './outdir'
   disk_io          = 'none'
   pseudo_dir       = './../pseudo'
/
&SYSTEM
   ibrav            = 0
   nat              = 32
   ntyp             = 1
   nbnd             = 346
   ecutwfc          = 70
   ecutrho          = 280
   occupations      = 'smearing'
   degauss          = 0.02
   smearing         = 'marzari-vanderbilt'
   input_dft        = 'PBE'
/
&ELECTRONS
   electron_maxstep = 200
   conv_thr         = 1e-06
   mixing_beta      = 0.1
   mixing_ndim      = 8
   diagonalization  = 'david'
/
&IONS
/
&CELL
/
&FCP
/
&RISM
/
ATOMIC_SPECIES
Pt 195.084 Pt_ONCV_PBE-1.2.upf

K_POINTS automatic
4 4 4  0 0 0

CELL_PARAMETERS angstrom
7.89273741604163 0.00000000000000 0.00000000000000
0.00000000000000 7.96268871599887 0.00000000000000
0.00000000000000 0.00000000000000 7.94454430797737

ATOMIC_POSITIONS angstrom
Pt -0.0063311764 -0.0033405092 -0.0086077613  
Pt -0.0037123716 1.9857931602 2.0105999564  
Pt 1.9804248601 -0.0076920612 2.0115311569  
Pt 1.9810104201 1.9927952583 -0.0100965090  
Pt -0.0009298898 -0.0027972096 4.0116083762  
Pt 0.0039385499 1.9893690279 6.0112148286  
Pt 1.9779750240 0.0070034509 6.0126432645  
Pt 1.9900486275 1.9924007536 4.0030740882  
Pt 0.0009157573 3.9947084582 0.0066367762  
Pt 0.0075848589 5.9854392139 1.9990215358  
Pt 1.9868805036 3.9883900502 1.9955815485  
Pt 1.9843308385 5.9799188063 0.0048595386  
Pt 0.0055259142 3.9878045082 4.0112423425  
Pt 0.0064565928 5.9913570089 6.0172570019  
Pt 1.9868839776 3.9912444586 6.0242477193  
Pt 1.9931420866 5.9847838211 4.0139540543  
Pt 3.9708621715 0.0007672652 0.0094314493  
Pt 3.9570928319 1.9933848087 2.0081326472  
Pt 5.9584231492 -0.0010700586 1.9991447455  
Pt 5.9457233572 1.9925180493 -0.0099248322  
Pt 3.9673195147 -0.0081682586 4.0145904367  
Pt 3.9661686347 1.9876627197 6.0229538731  
Pt 5.9439329960 0.0063882761 6.0076808642  
Pt 5.9523605944 1.9871474352 4.0057329702  
Pt 3.9595198532 3.9894469251 0.0056683998  
Pt 3.9680805880 5.9784296785 2.0048127192  
Pt 5.9466620862 3.9934446505 2.0094451124  
Pt 5.9452850508 5.9784085811 -0.0087997499  
Pt 3.9645190197 3.9965883699 4.0165157638  
Pt 3.9679528288 5.9901016124 6.0097140231  
Pt 5.9455010635 3.9872790367 6.0121613739  
Pt 5.9560811004 5.9803117032 4.0044767916  

