&CONTROL
   calculation      = 'scf'
   restart_mode     = 'from_scratch'
   tprnfor          = .true.
   outdir           = './outdir'
   disk_io          = 'none'
   pseudo_dir       = '/scratch/ch24d003/pseudo'
/
&SYSTEM
   ibrav            = 0
   nat              = 32
   ntyp             = 1
   nbnd             = 346
   ecutwfc          = 70
   ecutrho          = 280
   occupations      = 'smearing'
   degauss          = 0.02
   smearing         = 'marzari-vanderbilt'
   input_dft        = 'PBE'
/
&ELECTRONS
   electron_maxstep = 200
   conv_thr         = 1e-06
   mixing_beta      = 0.1
   mixing_ndim      = 8
   diagonalization  = 'david'
/
&IONS
/
&CELL
/
&FCP
/
&RISM
/
ATOMIC_SPECIES
Pt 195.084 Pt_ONCV_PBE-1.2.upf

K_POINTS automatic
4 4 4  0 0 0

CELL_PARAMETERS angstrom
7.89483400000000 0.00000000000000 0.00000000000000
0.00000000000000 7.87004400000000 0.00000000000000
0.00000000000000 0.00000000000000 8.01469200000000

ATOMIC_POSITIONS angstrom
Pt 7.8064370000 7.7924130000 0.0392723120  
Pt 0.0116518160 2.0560353000 2.0683863000  
Pt 2.0419607000 7.7823590000 2.1273947000  
Pt 1.9764152000 1.9108046000 0.1242826600  
Pt 7.8711357000 7.8669496000 3.8847325000  
Pt 0.0464035900 1.9674494000 6.0998590000  
Pt 2.0025368000 0.0023896021 5.9234900000  
Pt 1.9269828000 1.9464551000 4.0073886000  
Pt 0.0123810200 3.9927979000 0.0348622300  
Pt 7.8049517000 5.8951907000 1.9326748000  
Pt 1.9537818000 3.9994047000 2.0680022000  
Pt 1.9934949000 5.9241940000 0.0890471700  
Pt 0.0675731200 3.9332957000 4.1017175000  
Pt 7.8726025000 5.9395485000 6.0655675000  
Pt 2.0073788000 3.8384812000 6.0834146000  
Pt 1.9410020000 5.8217160000 4.0796490000  
Pt 3.9306006000 0.0270887460 7.9505095000  
Pt 3.9938530000 1.9390247000 2.0037563000  
Pt 5.9241390000 7.7852025000 1.9487171000  
Pt 5.8994300000 1.8522180000 7.8805666000  
Pt 4.0694830000 0.0615463930 3.8536582000  
Pt 3.9451532000 1.9289750000 5.8199863000  
Pt 5.9711537000 0.0615279530 5.9056990000  
Pt 5.9525330000 2.0997078000 4.0075355000  
Pt 3.9169042000 3.9685783000 0.0934397950  
Pt 3.9901493000 5.8840427000 2.0268807000  
Pt 5.9225326000 3.9336020000 1.9798286000  
Pt 5.8763804000 5.9044350000 7.9529366000  
Pt 3.8975236000 3.9217384000 3.9952433000  
Pt 3.9049401000 6.0014753000 6.0181470000  
Pt 5.9102870000 3.9634378000 6.0062220000  
Pt 5.8637120000 5.9031153000 4.0689600000  

