&CONTROL
   calculation      = 'scf'
   restart_mode     = 'from_scratch'
   tprnfor          = .true.
   outdir           = './outdir'
   disk_io          = 'none'
   pseudo_dir       = './../pseudo'
/
&SYSTEM
   ibrav            = 0
   nat              = 32
   ntyp             = 1
   nbnd             = 346
   ecutwfc          = 70
   ecutrho          = 280
   occupations      = 'smearing'
   degauss          = 0.02
   smearing         = 'marzari-vanderbilt'
   input_dft        = 'PBE'
/
&ELECTRONS
   electron_maxstep = 200
   conv_thr         = 1e-06
   mixing_beta      = 0.1
   mixing_ndim      = 8
   diagonalization  = 'david'
/
&IONS
/
&CELL
/
&FCP
/
&RISM
/
ATOMIC_SPECIES
Pt 195.084 Pt_ONCV_PBE-1.2.upf

K_POINTS automatic
4 4 4  0 0 0

CELL_PARAMETERS angstrom
7.88775546550224 0.00000000000000 0.00000000000000
0.00000000000000 8.01730738684896 0.00000000000000
0.00000000000000 0.00000000000000 7.95415556165643

ATOMIC_POSITIONS angstrom
Pt 0.0088323320 0.0026636844 0.0047424346  
Pt 0.0089489667 2.0108305736 2.0037715038  
Pt 1.9668536205 -0.0048640011 2.0112615425  
Pt 1.9658979881 1.9954227667 -0.0095848637  
Pt -0.0000849024 0.0029793053 4.0024277949  
Pt 0.0004419979 2.0134782395 6.0117927443  
Pt 1.9663746142 -0.0088954032 6.0189093878  
Pt 1.9548564192 2.0024638425 4.0049791912  
Pt 0.0059672398 4.0102749313 -0.0005000747  
Pt -0.0070058908 6.0247819261 1.9987112455  
Pt 1.9506303238 4.0169906893 2.0112543289  
Pt 1.9555171125 6.0169835865 -0.0073213794  
Pt 0.0077052168 4.0187058911 4.0067333577  
Pt -0.0069230200 6.0084026844 6.0059130951  
Pt 1.9562487157 4.0079473932 6.0203823313  
Pt 1.9660884619 6.0092749148 3.9996691164  
Pt 3.9229105402 -0.0080963780 0.0028695765  
Pt 3.9076741869 2.0104204524 1.9950373898  
Pt 5.8830394453 0.0051383804 2.0141882439  
Pt 5.8743969433 2.0079038639 -0.0073555184  
Pt 3.9220999692 -0.0042903811 4.0119001628  
Pt 3.9172487558 2.0142533108 6.0176581836  
Pt 5.8816254595 0.0002261263 6.0162173516  
Pt 5.8682865239 1.9983677065 4.0139571198  
Pt 3.9239426615 4.0051628336 -0.0047779297  
Pt 3.9195343844 6.0053238381 1.9960366671  
Pt 5.8672778468 4.0026023740 2.0026952596  
Pt 5.8678291666 6.0217535116 -0.0070052952  
Pt 3.9187212565 4.0039920016 4.0041543225  
Pt 3.9236064173 6.0246606068 6.0104599210  
Pt 5.8704665264 4.0064611360 6.0152905709  
Pt 5.8799382638 6.0162977555 4.0057174260  

