&CONTROL
   calculation      = 'scf'
   restart_mode     = 'from_scratch'
   tprnfor          = .true.
   outdir           = './outdir'
   disk_io          = 'none'
   pseudo_dir       = '/scratch/ch24d003/pseudo'
/
&SYSTEM
   ibrav            = 0
   nat              = 32
   ntyp             = 1
   nbnd             = 346
   ecutwfc          = 70
   ecutrho          = 280
   occupations      = 'smearing'
   degauss          = 0.02
   smearing         = 'marzari-vanderbilt'
   input_dft        = 'PBE'
/
&ELECTRONS
   electron_maxstep = 200
   conv_thr         = 1e-06
   mixing_beta      = 0.1
   mixing_ndim      = 8
   diagonalization  = 'david'
/
&IONS
/
&CELL
/
&FCP
/
&RISM
/
ATOMIC_SPECIES
Pt 195.084 Pt_ONCV_PBE-1.2.upf

K_POINTS automatic
4 4 4  0 0 0

CELL_PARAMETERS angstrom
7.89483400000000 0.00000000000000 0.00000000000000
0.00000000000000 7.87004400000000 0.00000000000000
0.00000000000000 0.00000000000000 8.01469200000000

ATOMIC_POSITIONS angstrom
Pt 0.0676948600 0.0772122200 8.0079790000  
Pt 7.7871094000 2.0341850000 2.0205777000  
Pt 2.0675383000 0.0040246863 2.0569174000  
Pt 1.9625716000 1.9070032000 0.0984823550  
Pt 0.0419018200 0.0267413240 3.8950377000  
Pt 0.1054930500 1.9127108000 5.9897500000  
Pt 2.0442790000 0.0217900690 6.0725193000  
Pt 1.9663732000 1.9855001000 3.9879146000  
Pt 0.0516976600 3.8918000000 7.9952474000  
Pt 7.8834500000 5.8601294000 1.9628924000  
Pt 1.9433537000 3.8897152000 1.9435240000  
Pt 2.0478580000 5.8577090000 0.0223230940  
Pt 7.8280340000 3.8984053000 4.0058284000  
Pt 7.8633830000 5.9722385000 6.0972290000  
Pt 1.9518230000 3.9522250000 5.9497223000  
Pt 1.9878372000 5.8713460000 4.0685600000  
Pt 3.9706945000 0.0941921000 0.0164078530  
Pt 3.9688847000 1.9406798000 2.0110881000  
Pt 5.8277130000 7.7837270000 2.0728645000  
Pt 5.9227510000 2.0270570000 7.9050030000  
Pt 4.0131946000 7.8677690000 3.9976048000  
Pt 3.8875716000 1.9146364000 6.0165515000  
Pt 5.9498260000 0.0644488100 5.9764180000  
Pt 5.9027076000 1.9493922000 4.1739490000  
Pt 3.9054472000 3.9517370000 7.9812727000  
Pt 3.9520720000 5.8954390000 1.9468808000  
Pt 5.8903280000 3.9193840000 1.9556704000  
Pt 5.9459243000 5.9482360000 7.9340963000  
Pt 3.8841136000 3.8629570000 3.9621198000  
Pt 3.9660656000 5.9359956000 6.0794387000  
Pt 5.8065004000 3.9643000000 6.0358653000  
Pt 5.9112720000 5.8824267000 4.0314770000  

