&CONTROL
   calculation      = 'scf'
   restart_mode     = 'from_scratch'
   tprnfor          = .true.
   outdir           = './outdir'
   disk_io          = 'none'
   pseudo_dir       = '/scratch/ch24d003/pseudo'
/
&SYSTEM
   ibrav            = 0
   nat              = 32
   ntyp             = 1
   nbnd             = 346
   ecutwfc          = 70
   ecutrho          = 280
   occupations      = 'smearing'
   degauss          = 0.02
   smearing         = 'marzari-vanderbilt'
   input_dft        = 'PBE'
/
&ELECTRONS
   electron_maxstep = 200
   conv_thr         = 1e-06
   mixing_beta      = 0.1
   mixing_ndim      = 8
   diagonalization  = 'david'
/
&IONS
/
&CELL
/
&FCP
/
&RISM
/
ATOMIC_SPECIES
Pt 195.084 Pt_ONCV_PBE-1.2.upf

K_POINTS automatic
4 4 4  0 0 0

CELL_PARAMETERS angstrom
7.89483400000000 0.00000000000000 0.00000000000000
0.00000000000000 7.87004400000000 0.00000000000000
0.00000000000000 0.00000000000000 8.01469200000000

ATOMIC_POSITIONS angstrom
Pt 0.1207745000 7.8379693000 7.9941816000  
Pt 7.8125443000 1.9879775000 2.0043597000  
Pt 1.9308875000 7.8463035000 2.1035770000  
Pt 1.9901551000 2.0172865000 0.0001282233  
Pt 7.8547893000 0.0306068040 3.9641876000  
Pt 0.0299402960 2.0167842000 5.9603915000  
Pt 1.9997139000 7.7886720000 5.9807880000  
Pt 1.9267397000 1.9848173000 4.0770290000  
Pt 7.8143244000 3.9536690000 0.0166909500  
Pt 0.0826688560 5.8414140000 1.9869289000  
Pt 2.0265985000 3.8906868000 1.9704334000  
Pt 2.0279680000 5.8379216000 7.9706830000  
Pt 7.8157510000 3.8686990000 3.9552490000  
Pt 7.8443403000 5.8045487000 6.0351143000  
Pt 1.9225004000 3.8795470000 6.0690885000  
Pt 1.8977621000 5.9762897000 4.0613246000  
Pt 3.8726730000 0.1018447600 0.0068627237  
Pt 3.8806944000 1.9202023000 2.0026379000  
Pt 5.8433566000 0.0221580620 2.0334680000  
Pt 5.9816510000 1.8288547000 8.0111810000  
Pt 3.9600232000 0.0644556800 4.0733180000  
Pt 4.1006480000 2.0144327000 5.9841220000  
Pt 6.0368857000 0.0235158190 5.9766060000  
Pt 5.8336744000 1.9941424000 3.9842796000  
Pt 4.0909986000 4.0226530000 8.0018980000  
Pt 3.9804630000 5.9005365000 2.0567667000  
Pt 5.9132380000 3.9949890000 1.9925381000  
Pt 5.9040850000 5.9037666000 7.9968050000  
Pt 3.9033225000 3.9880626000 3.9507103000  
Pt 3.9251833000 5.8075266000 5.9482117000  
Pt 5.9232845000 3.9041204000 6.0721536000  
Pt 5.9526587000 5.9807024000 4.0294986000  

