&CONTROL
   calculation      = 'scf'
   restart_mode     = 'from_scratch'
   tprnfor          = .true.
   outdir           = './outdir'
   disk_io          = 'none'
   pseudo_dir       = '/scratch/ch24d003/pseudo'
/
&SYSTEM
   ibrav            = 0
   nat              = 32
   ntyp             = 1
   nbnd             = 346
   ecutwfc          = 70
   ecutrho          = 280
   occupations      = 'smearing'
   degauss          = 0.02
   smearing         = 'marzari-vanderbilt'
   input_dft        = 'PBE'
/
&ELECTRONS
   electron_maxstep = 200
   conv_thr         = 1e-06
   mixing_beta      = 0.1
   mixing_ndim      = 8
   diagonalization  = 'david'
/
&IONS
/
&CELL
/
&FCP
/
&RISM
/
ATOMIC_SPECIES
Pt 195.084 Pt_ONCV_PBE-1.2.upf

K_POINTS automatic
4 4 4  0 0 0

CELL_PARAMETERS angstrom
7.89483400000000 0.00000000000000 0.00000000000000
0.00000000000000 7.87004400000000 0.00000000000000
0.00000000000000 0.00000000000000 8.01469200000000

ATOMIC_POSITIONS angstrom
Pt 0.0514464600 7.8020844000 7.8954782000  
Pt 0.0192144870 1.7549554000 1.8836300000  
Pt 1.9568605000 7.7653380000 1.9694630000  
Pt 1.9897566000 1.8594836000 0.0190997530  
Pt 0.0698985600 0.0122613090 3.9792173000  
Pt 7.8054185000 1.9412307000 5.9899955000  
Pt 1.8987918000 0.0401636200 6.0647655000  
Pt 2.0578644000 1.9755971000 3.7521280000  
Pt 0.0945558200 3.7876964000 7.9803452000  
Pt 7.7747260000 5.8897343000 1.9988030000  
Pt 1.9902904000 4.1155233000 2.0342460000  
Pt 2.0124545000 5.8715825000 8.0090080000  
Pt 0.1070478400 3.8881228000 3.8555560000  
Pt 7.8258724000 5.9343767000 6.0820327000  
Pt 1.8780158000 3.9145758000 5.9613250000  
Pt 1.9077092000 5.8966600000 4.0207340000  
Pt 3.8229700000 0.0383588100 7.9416210000  
Pt 4.1145926000 2.0327008000 2.1045816000  
Pt 5.9014845000 7.8571825000 2.1679230000  
Pt 5.8118434000 1.9697604000 0.0183076150  
Pt 3.8451388000 0.0044782610 4.1184435000  
Pt 3.9881563000 2.0999220000 6.0575070000  
Pt 5.9124146000 0.1220546600 6.0222707000  
Pt 5.9355020000 1.9391059000 3.9925492000  
Pt 3.9181702000 3.9359891000 0.0899166100  
Pt 3.9954450000 5.9406690000 2.1541670000  
Pt 6.0935254000 3.9000986000 1.9968863000  
Pt 5.8332420000 5.9884725000 7.9611150000  
Pt 4.0104322000 4.0111303000 4.0710880000  
Pt 3.9790525000 5.9320827000 6.0085773000  
Pt 5.8870006000 3.8710027000 5.9799210000  
Pt 5.9217367000 5.9427630000 4.0905094000  

