&CONTROL
   calculation      = 'scf'
   restart_mode     = 'from_scratch'
   tprnfor          = .true.
   outdir           = './outdir'
   disk_io          = 'none'
   pseudo_dir       = './../pseudo'
/
&SYSTEM
   ibrav            = 0
   nat              = 32
   ntyp             = 1
   nbnd             = 346
   ecutwfc          = 70
   ecutrho          = 280
   occupations      = 'smearing'
   degauss          = 0.02
   smearing         = 'marzari-vanderbilt'
   input_dft        = 'PBE'
/
&ELECTRONS
   electron_maxstep = 200
   conv_thr         = 1e-06
   mixing_beta      = 0.1
   mixing_ndim      = 8
   diagonalization  = 'david'
/
&IONS
/
&CELL
/
&FCP
/
&RISM
/
ATOMIC_SPECIES
Pt 195.084 Pt_ONCV_PBE-1.2.upf

K_POINTS automatic
4 4 4  0 0 0

CELL_PARAMETERS angstrom
7.97024892984948 0.00000000000000 0.00000000000000
0.00000000000000 7.97406709377872 0.00000000000000
0.00000000000000 0.00000000000000 7.97549573538914

ATOMIC_POSITIONS angstrom
Pt 0.0087084034 -0.0008718089 -0.0086892692  
Pt 0.0075890690 2.0115633618 2.0016795673  
Pt 2.0115648172 0.0064026363 2.0021227833  
Pt 2.0069684485 2.0075138818 -0.0008863651  
Pt -0.0013931909 0.0017595976 3.9957951223  
Pt 0.0085671407 2.0175904545 5.9911569677  
Pt 1.9972867811 -0.0070178522 5.9937881729  
Pt 2.0056769719 1.9999769570 3.9821488471  
Pt 0.0033350190 4.0114424113 -0.0043736030  
Pt -0.0066057670 6.0372634134 1.9996348092  
Pt 2.0066778912 4.0098610945 1.9899155703  
Pt 2.0056714403 6.0275122205 0.0053141433  
Pt -0.0097250141 4.0176049030 3.9954184130  
Pt 0.0066565333 6.0319862471 5.9800050000  
Pt 2.0072293762 4.0131169039 5.9840149031  
Pt 1.9939879182 6.0369110938 3.9958767278  
Pt 4.0127980561 0.0007187901 -0.0046223519  
Pt 4.0106433900 2.0101188273 1.9938618500  
Pt 6.0128551451 -0.0062682156 1.9950219992  
Pt 6.0116206470 2.0032340881 -0.0016410483  
Pt 3.9995401587 0.0081685234 3.9859537037  
Pt 4.0023028982 2.0035765795 5.9823747636  
Pt 6.0018108697 -0.0002330809 5.9953166964  
Pt 6.0129285166 2.0166014032 3.9923912239  
Pt 4.0141445923 4.0199567588 0.0077264229  
Pt 3.9978013244 6.0355898674 1.9979847236  
Pt 6.0097679749 4.0163838354 1.9999960628  
Pt 6.0057199615 6.0363853408 -0.0030139149  
Pt 4.0115174370 4.0199600535 3.9936267662  
Pt 4.0014960238 6.0358545259 5.9897170308  
Pt 6.0007675518 4.0255614930 5.9788263086  
Pt 6.0158233130 6.0243585744 3.9831686870  

