&CONTROL
   calculation      = 'scf'
   restart_mode     = 'from_scratch'
   tprnfor          = .true.
   outdir           = './outdir'
   disk_io          = 'none'
   pseudo_dir       = '/scratch/ch24d003/pseudo'
/
&SYSTEM
   ibrav            = 0
   nat              = 32
   ntyp             = 1
   nbnd             = 346
   ecutwfc          = 70
   ecutrho          = 280
   occupations      = 'smearing'
   degauss          = 0.02
   smearing         = 'marzari-vanderbilt'
   input_dft        = 'PBE'
/
&ELECTRONS
   electron_maxstep = 200
   conv_thr         = 1e-06
   mixing_beta      = 0.1
   mixing_ndim      = 8
   diagonalization  = 'david'
/
&IONS
/
&CELL
/
&FCP
/
&RISM
/
ATOMIC_SPECIES
Pt 195.084 Pt_ONCV_PBE-1.2.upf

K_POINTS automatic
4 4 4  0 0 0

CELL_PARAMETERS angstrom
7.89483400000000 0.00000000000000 0.00000000000000
0.00000000000000 7.87004400000000 0.00000000000000
0.00000000000000 0.00000000000000 8.01469200000000

ATOMIC_POSITIONS angstrom
Pt 0.1848907300 0.1008539500 7.9140706000  
Pt 0.0769847000 1.8761411000 2.0458267000  
Pt 1.8874544000 7.7867060000 2.0472858000  
Pt 2.1017704000 1.9643348000 7.9288470000  
Pt 7.7331900000 0.0455782500 3.9650693000  
Pt 0.0180850140 2.0368557000 5.9676390000  
Pt 1.9184686000 7.7663260000 5.9470970000  
Pt 1.9724736000 1.9876244000 4.0343460000  
Pt 7.8634600000 3.8260510000 7.9631810000  
Pt 0.0825901600 5.9215880000 2.0188742000  
Pt 1.9508438000 3.9895290000 1.9452231000  
Pt 2.0582986000 5.9082665000 0.0145006640  
Pt 7.7862260000 4.0115094000 3.9430456000  
Pt 7.7745320000 5.9072046000 6.0682163000  
Pt 2.0235796000 3.9316432000 6.0186280000  
Pt 1.9722419000 5.8490133000 3.9474926000  
Pt 4.0462430000 0.0859560800 0.0270424630  
Pt 3.8557744000 1.9257365000 2.0215697000  
Pt 5.9533440000 0.0402967780 2.0265982000  
Pt 5.9820037000 2.0205288000 0.1031704550  
Pt 4.0166855000 7.7609925000 4.1074505000  
Pt 3.8826604000 1.9586254000 5.9171320000  
Pt 5.8708863000 7.8681900000 5.9568270000  
Pt 5.8426466000 1.9657510000 3.8878490000  
Pt 4.0420256000 3.9286106000 0.0632595350  
Pt 3.9633810000 6.0084195000 2.0683868000  
Pt 5.8909287000 3.9983385000 1.9867638000  
Pt 5.8933907000 5.9431825000 0.1587307300  
Pt 3.8986847000 3.9407868000 3.9789190000  
Pt 4.0038238000 5.7477830000 6.1260880000  
Pt 5.8610740000 3.9051034000 5.9918785000  
Pt 5.8968220000 5.8976730000 4.0508180000  

