&CONTROL
   calculation      = 'scf'
   restart_mode     = 'from_scratch'
   tprnfor          = .true.
   outdir           = './outdir'
   disk_io          = 'none'
   pseudo_dir       = './../pseudo'
/
&SYSTEM
   ibrav            = 0
   nat              = 32
   ntyp             = 1
   nbnd             = 346
   ecutwfc          = 70
   ecutrho          = 280
   occupations      = 'smearing'
   degauss          = 0.02
   smearing         = 'marzari-vanderbilt'
   input_dft        = 'PBE'
/
&ELECTRONS
   electron_maxstep = 200
   conv_thr         = 1e-06
   mixing_beta      = 0.1
   mixing_ndim      = 8
   diagonalization  = 'david'
/
&IONS
/
&CELL
/
&FCP
/
&RISM
/
ATOMIC_SPECIES
Pt 195.084 Pt_ONCV_PBE-1.2.upf

K_POINTS automatic
4 4 4  0 0 0

CELL_PARAMETERS angstrom
7.96068395460807 0.00000000000000 0.00000000000000
0.00000000000000 8.01220907606252 0.00000000000000
0.00000000000000 0.00000000000000 7.87790548583691

ATOMIC_POSITIONS angstrom
Pt 0.0000365058 -0.0083331130 0.0061704220  
Pt -0.0022164338 2.0070866004 1.9777279736  
Pt 1.9940138982 0.0068491928 1.9709205547  
Pt 1.9925794463 1.9906635556 -0.0087811087  
Pt 0.0060489169 -0.0089280223 3.9524357948  
Pt 0.0068313476 2.0019076613 5.9306463351  
Pt 1.9821867052 -0.0033124012 5.9380617671  
Pt 1.9845684310 2.0044332791 3.9482774244  
Pt -0.0013068849 4.0055300430 0.0066381569  
Pt -0.0098779002 5.9991296752 1.9690459776  
Pt 1.9828840130 3.9929220092 1.9683063341  
Pt 1.9940188908 5.9917780863 -0.0013073761  
Pt -0.0081361117 3.9901009890 3.9550011849  
Pt -0.0007523786 6.0037122179 5.9233527167  
Pt 1.9797684902 3.9962587172 5.9208459154  
Pt 1.9894149707 5.9915603003 3.9491827161  
Pt 3.9741500277 -0.0091384231 -0.0012393789  
Pt 3.9766770751 1.9939826335 1.9667455409  
Pt 5.9637145624 0.0026749844 1.9783116068  
Pt 5.9713571260 2.0026345255 0.0042708424  
Pt 3.9855405648 -0.0031972990 3.9479479387  
Pt 3.9831583341 1.9899970734 5.9221920704  
Pt 5.9676675729 0.0080925464 5.9348524696  
Pt 5.9747227303 1.9948778319 3.9583127544  
Pt 3.9844837056 3.9950590993 0.0082145716  
Pt 3.9803585431 6.0068667753 1.9811805422  
Pt 5.9752254314 3.9919521993 1.9775600239  
Pt 5.9601790119 6.0059343259 0.0033585011  
Pt 3.9700430295 4.0029128232 3.9542580320  
Pt 3.9751771584 5.9913983210 5.9248377488  
Pt 5.9708275773 4.0050900554 5.9327378339  
Pt 5.9702908082 5.9891849663 3.9483155282  

