&CONTROL
   calculation      = 'scf'
   restart_mode     = 'from_scratch'
   tprnfor          = .true.
   outdir           = './outdir'
   disk_io          = 'none'
   pseudo_dir       = './../pseudo'
/
&SYSTEM
   ibrav            = 0
   nat              = 32
   ntyp             = 1
   nbnd             = 346
   ecutwfc          = 70
   ecutrho          = 280
   occupations      = 'smearing'
   degauss          = 0.02
   smearing         = 'marzari-vanderbilt'
   input_dft        = 'PBE'
/
&ELECTRONS
   electron_maxstep = 200
   conv_thr         = 1e-06
   mixing_beta      = 0.1
   mixing_ndim      = 8
   diagonalization  = 'david'
/
&IONS
/
&CELL
/
&FCP
/
&RISM
/
ATOMIC_SPECIES
Pt 195.084 Pt_ONCV_PBE-1.2.upf

K_POINTS automatic
4 4 4  0 0 0

CELL_PARAMETERS angstrom
7.89485211103061 0.00000000000000 0.00000000000000
0.00000000000000 7.94384274962001 0.00000000000000
0.00000000000000 0.00000000000000 8.00428789258154

ATOMIC_POSITIONS angstrom
Pt -0.0091734919 0.0046604082 0.0068260199  
Pt 0.0060989724 1.9849776584 2.0168185456  
Pt 1.9867525894 0.0065510952 2.0240457286  
Pt 1.9789607203 1.9972764041 -0.0026767185  
Pt 0.0075120129 0.0000953706 4.0390792665  
Pt 0.0061379694 1.9982014136 6.0494045431  
Pt 1.9810718527 -0.0078129375 6.0563921954  
Pt 1.9827928967 2.0021774024 4.0341521287  
Pt -0.0093087539 3.9754674222 -0.0080781805  
Pt 0.0042214843 5.9866372475 2.0233974266  
Pt 1.9844157205 3.9881828702 2.0279167970  
Pt 1.9789139873 5.9744132519 0.0051754122  
Pt 0.0059066637 3.9749799921 4.0399503755  
Pt 0.0071627219 5.9746942455 6.0524782329  
Pt 1.9842738346 3.9771646052 6.0618099526  
Pt 1.9807357091 5.9719551007 4.0406620620  
Pt 3.9459957379 0.0003952344 -0.0011712361  
Pt 3.9552249336 1.9905325864 2.0103479952  
Pt 5.9233810712 -0.0035962852 2.0132507509  
Pt 5.9386872535 1.9907272664 0.0030685221  
Pt 3.9511756837 0.0071032136 4.0442398093  
Pt 3.9457745921 1.9862655572 6.0495342743  
Pt 5.9262355768 0.0050359532 6.0514320581  
Pt 5.9408682552 1.9857071352 4.0299492845  
Pt 3.9647665323 3.9814660341 -0.0074491864  
Pt 3.9508835064 5.9726060499 2.0249726648  
Pt 5.9266838034 3.9926411496 2.0186876602  
Pt 5.9265519521 5.9716354165 -0.0027798127  
Pt 3.9559928908 3.9844704667 4.0312545684  
Pt 3.9580536502 5.9678067168 6.0656826125  
Pt 5.9394105626 3.9762957834 6.0660932514  
Pt 5.9249767906 5.9844373568 4.0416198976  

