&CONTROL
   calculation      = 'scf'
   restart_mode     = 'from_scratch'
   tprnfor          = .true.
   outdir           = './outdir'
   disk_io          = 'none'
   pseudo_dir       = './../pseudo'
/
&SYSTEM
   ibrav            = 0
   nat              = 32
   ntyp             = 1
   nbnd             = 346
   ecutwfc          = 70
   ecutrho          = 280
   occupations      = 'smearing'
   degauss          = 0.02
   smearing         = 'marzari-vanderbilt'
   input_dft        = 'PBE'
/
&ELECTRONS
   electron_maxstep = 200
   conv_thr         = 1e-06
   mixing_beta      = 0.1
   mixing_ndim      = 8
   diagonalization  = 'david'
/
&IONS
/
&CELL
/
&FCP
/
&RISM
/
ATOMIC_SPECIES
Pt 195.084 Pt_ONCV_PBE-1.2.upf

K_POINTS automatic
4 4 4  0 0 0

CELL_PARAMETERS angstrom
7.91581651229083 0.00000000000000 0.00000000000000
0.00000000000000 7.97080350187237 0.00000000000000
0.00000000000000 0.00000000000000 7.90127375775000

ATOMIC_POSITIONS angstrom
Pt -0.0029108271 0.0068948884 -0.0060842003  
Pt 0.0077309156 1.9897674962 1.9652762523  
Pt 1.9801093618 0.0068288886 1.9562125351  
Pt 1.9903534356 1.9819468370 0.0035461304  
Pt -0.0008010940 0.0060441711 3.9310672894  
Pt -0.0001602155 1.9792193522 5.8842766622  
Pt 1.9902885328 -0.0079522746 5.8864629246  
Pt 1.9749432980 1.9887801691 3.9359912885  
Pt -0.0050138754 3.9808350055 -0.0029484925  
Pt 0.0027161142 5.9569828481 1.9560319408  
Pt 1.9833668424 3.9718431402 1.9553346636  
Pt 1.9738943459 5.9520222098 -0.0086390722  
Pt -0.0042532068 3.9812239420 3.9364766304  
Pt 0.0007489709 5.9575376476 5.8960727287  
Pt 1.9787827155 3.9792433238 5.8902575604  
Pt 1.9889020787 5.9522350576 3.9228690359  
Pt 3.9630473457 0.0049241074 0.0095052590  
Pt 3.9695309277 1.9897068749 1.9674096784  
Pt 5.9502537063 0.0034841703 1.9699564091  
Pt 5.9477269656 1.9910357202 -0.0034608565  
Pt 3.9697613705 0.0044981544 3.9310991749  
Pt 3.9659450786 1.9928313335 5.8987212283  
Pt 5.9342169962 0.0026087861 5.8917475930  
Pt 5.9353431242 1.9839347236 3.9361066380  
Pt 3.9619604954 3.9765186096 0.0093705777  
Pt 3.9689414632 5.9528886856 1.9585009050  
Pt 5.9359278368 3.9708431999 1.9637104158  
Pt 5.9457505251 5.9562104183 0.0026989276  
Pt 3.9689523107 3.9649299926 3.9349566902  
Pt 3.9667615467 5.9638938869 5.8994517844  
Pt 5.9419714610 3.9769399601 5.8904764452  
Pt 5.9521538432 5.9646448826 3.9180868597  

