&CONTROL
   calculation      = 'scf'
   restart_mode     = 'from_scratch'
   tprnfor          = .true.
   outdir           = './outdir'
   disk_io          = 'none'
   pseudo_dir       = './../pseudo'
/
&SYSTEM
   ibrav            = 0
   nat              = 32
   ntyp             = 1
   nbnd             = 346
   ecutwfc          = 70
   ecutrho          = 280
   occupations      = 'smearing'
   degauss          = 0.02
   smearing         = 'marzari-vanderbilt'
   input_dft        = 'PBE'
/
&ELECTRONS
   electron_maxstep = 200
   conv_thr         = 1e-06
   mixing_beta      = 0.1
   mixing_ndim      = 8
   diagonalization  = 'david'
/
&IONS
/
&CELL
/
&FCP
/
&RISM
/
ATOMIC_SPECIES
Pt 195.084 Pt_ONCV_PBE-1.2.upf

K_POINTS automatic
4 4 4  0 0 0

CELL_PARAMETERS angstrom
7.92883422598480 0.00000000000000 0.00000000000000
0.00000000000000 7.91984242972520 0.00000000000000
0.00000000000000 0.00000000000000 7.87254684884964

ATOMIC_POSITIONS angstrom
Pt -0.0085675280 0.0081209994 -0.0049490987  
Pt -0.0026721529 1.9595354485 1.9567635225  
Pt 1.9802360751 -0.0089435095 1.9627563029  
Pt 1.9843256613 1.9586047029 -0.0074231055  
Pt -0.0091217939 -0.0001182797 3.9243624906  
Pt -0.0030660279 1.9609967611 5.8775407341  
Pt 1.9800892435 -0.0072648788 5.8679718300  
Pt 1.9842418396 1.9577130049 3.9075159531  
Pt 0.0024032145 3.9282396002 0.0096036722  
Pt 0.0018416715 5.9016138696 1.9676886267  
Pt 1.9756166933 3.9248125910 1.9499699531  
Pt 1.9819712654 5.8958176184 -0.0053503025  
Pt -0.0035833669 3.9314106792 3.9149692237  
Pt -0.0008549078 5.9063304160 5.8842311474  
Pt 1.9888529266 3.9372283115 5.8778123673  
Pt 1.9894458153 5.8924797499 3.9110309646  
Pt 3.9652095710 0.0045413489 -0.0086611143  
Pt 3.9696961730 1.9587230520 1.9517734136  
Pt 5.9566350529 -0.0044589860 1.9607064889  
Pt 5.9397810061 1.9732770401 0.0039529821  
Pt 3.9660042220 0.0021534355 3.9171995163  
Pt 3.9691718927 1.9616207636 5.8759776572  
Pt 5.9501772034 -0.0062205413 5.8743178171  
Pt 5.9502250348 1.9752873842 3.9251917827  
Pt 3.9621526012 3.9274145196 0.0006109005  
Pt 3.9713488893 5.8981074820 1.9625172129  
Pt 5.9407057777 3.9388480719 1.9535842775  
Pt 5.9479578352 5.8936199160 -0.0079092507  
Pt 3.9702327203 3.9303314506 3.9207602699  
Pt 3.9587749262 5.9000716072 5.8781932016  
Pt 5.9441625646 3.9430448632 5.8836411483  
Pt 5.9384207569 5.8978374419 3.9071529287  

