&CONTROL
   calculation      = 'scf'
   restart_mode     = 'from_scratch'
   tprnfor          = .true.
   outdir           = './outdir'
   disk_io          = 'none'
   pseudo_dir       = './../pseudo'
/
&SYSTEM
   ibrav            = 0
   nat              = 32
   ntyp             = 1
   nbnd             = 346
   ecutwfc          = 70
   ecutrho          = 280
   occupations      = 'smearing'
   degauss          = 0.02
   smearing         = 'marzari-vanderbilt'
   input_dft        = 'PBE'
/
&ELECTRONS
   electron_maxstep = 200
   conv_thr         = 1e-06
   mixing_beta      = 0.1
   mixing_ndim      = 8
   diagonalization  = 'david'
/
&IONS
/
&CELL
/
&FCP
/
&RISM
/
ATOMIC_SPECIES
Pt 195.084 Pt_ONCV_PBE-1.2.upf

K_POINTS automatic
4 4 4  0 0 0

CELL_PARAMETERS angstrom
7.96059247888818 0.00000000000000 0.00000000000000
0.00000000000000 7.89360422008265 0.00000000000000
0.00000000000000 0.00000000000000 7.87300359420779

ATOMIC_POSITIONS angstrom
Pt -0.0000862367 0.0030594295 0.0031993415  
Pt 0.0073050801 1.9664871423 1.9564723055  
Pt 1.9838724615 0.0035944772 1.9451567923  
Pt 1.9701014586 1.9635680562 0.0074828781  
Pt 0.0007205344 0.0091573419 3.9158812672  
Pt 0.0061035998 1.9588232090 5.8724690251  
Pt 1.9760865037 0.0023109927 5.8579266152  
Pt 1.9716656771 1.9656995345 3.9197630176  
Pt 0.0050578642 3.9350036773 0.0081572008  
Pt -0.0038455848 5.8920154429 1.9571197966  
Pt 1.9670473252 3.9175096610 1.9596642056  
Pt 1.9774254299 5.8812458284 0.0005022671  
Pt -0.0078584505 3.9203383614 3.9025291774  
Pt 0.0048500893 5.8939173617 5.8733045593  
Pt 1.9675101982 3.9179100198 5.8620519684  
Pt 1.9670969614 5.8867548864 3.9075268012  
Pt 3.9527099968 -0.0018282178 -0.0028156666  
Pt 3.9553742256 1.9581520586 1.9605178242  
Pt 5.9280946092 -0.0022438232 1.9535045405  
Pt 5.9240361009 1.9679128670 -0.0076888554  
Pt 3.9551659432 0.0015701618 3.9013263415  
Pt 3.9490345107 1.9710935187 5.8611117504  
Pt 5.9166987574 0.0067629465 5.8562943103  
Pt 5.9185782115 1.9650686172 3.9149684629  
Pt 3.9428253366 3.9260638943 -0.0015268477  
Pt 3.9538404659 5.8931794824 1.9523932734  
Pt 5.9189597914 3.9210082163 1.9620655507  
Pt 5.9275302390 5.8899336533 0.0032097731  
Pt 3.9525537248 3.9189226846 3.9011611538  
Pt 3.9455188405 5.8942481811 5.8571246769  
Pt 5.9122269645 3.9236947116 5.8696262993  
Pt 5.9292928243 5.8996142444 3.9181094344  

