&CONTROL
   calculation      = 'scf'
   restart_mode     = 'from_scratch'
   tprnfor          = .true.
   outdir           = './outdir'
   disk_io          = 'none'
   pseudo_dir       = '/scratch/ch24d003/pseudo'
/
&SYSTEM
   ibrav            = 0
   nat              = 32
   ntyp             = 1
   nbnd             = 346
   ecutwfc          = 70
   ecutrho          = 280
   occupations      = 'smearing'
   degauss          = 0.02
   smearing         = 'marzari-vanderbilt'
   input_dft        = 'PBE'
/
&ELECTRONS
   electron_maxstep = 200
   conv_thr         = 1e-06
   mixing_beta      = 0.1
   mixing_ndim      = 8
   diagonalization  = 'david'
/
&IONS
/
&CELL
/
&FCP
/
&RISM
/
ATOMIC_SPECIES
Pt 195.084 Pt_ONCV_PBE-1.2.upf

K_POINTS automatic
4 4 4  0 0 0

CELL_PARAMETERS angstrom
7.89483400000000 0.00000000000000 0.00000000000000
0.00000000000000 7.87004400000000 0.00000000000000
0.00000000000000 0.00000000000000 8.01469200000000

ATOMIC_POSITIONS angstrom
Pt 7.8158140000 0.0158585660 0.0263195840  
Pt 7.7721300000 2.0900638000 2.0670846000  
Pt 1.8846889000 7.8493030000 2.0648344000  
Pt 1.8834267000 1.9217430000 7.9950220000  
Pt 0.0558823600 0.0668065300 4.0438140000  
Pt 7.8443250000 2.0273230000 6.0345097000  
Pt 1.9348449000 7.7605734000 5.9728336000  
Pt 2.0248268000 1.9107450000 4.1754637000  
Pt 7.8730993000 3.9718893000 7.9968170000  
Pt 7.8244520000 5.9029110000 1.9372131000  
Pt 1.9788494000 3.9621615000 1.9593008000  
Pt 2.0058820000 5.8996325000 0.0076182600  
Pt 7.8751493000 3.9221208000 4.0545564000  
Pt 0.0524234550 5.8960366000 6.0477550000  
Pt 2.0228956000 3.9789020000 6.0425850000  
Pt 1.8291547000 5.8296190000 4.0203800000  
Pt 3.9851222000 7.8434033000 7.9505020000  
Pt 3.9681756000 1.9182093000 1.9122899000  
Pt 6.0924354000 0.0774779200 2.0712000000  
Pt 6.0117316000 1.8791695000 0.0139775190  
Pt 3.9642973000 0.0106874180 3.9760468000  
Pt 3.9522555000 1.8765129000 6.0234294000  
Pt 5.9668665000 0.0151410950 5.9323936000  
Pt 5.8332480000 2.0250132000 4.0084906000  
Pt 4.0453190000 3.8803432000 0.0299815420  
Pt 3.9343367000 5.9631210000 1.9101168000  
Pt 5.9106784000 4.0720820000 2.0731845000  
Pt 5.8550830000 5.9197990000 7.9835460000  
Pt 3.9617784000 3.9806607000 3.9397132000  
Pt 3.9231014000 5.8042073000 5.9708495000  
Pt 5.9703994000 3.8398035000 6.0218787000  
Pt 6.0424570000 5.9238358000 3.9928122000  

