&CONTROL
   calculation      = 'scf'
   restart_mode     = 'from_scratch'
   tprnfor          = .true.
   outdir           = './outdir'
   disk_io          = 'none'
   pseudo_dir       = '/scratch/ch24d003/pseudo'
/
&SYSTEM
   ibrav            = 0
   nat              = 32
   ntyp             = 1
   nbnd             = 346
   ecutwfc          = 70
   ecutrho          = 280
   occupations      = 'smearing'
   degauss          = 0.02
   smearing         = 'marzari-vanderbilt'
   input_dft        = 'PBE'
/
&ELECTRONS
   electron_maxstep = 200
   conv_thr         = 1e-06
   mixing_beta      = 0.1
   mixing_ndim      = 8
   diagonalization  = 'david'
/
&IONS
/
&CELL
/
&FCP
/
&RISM
/
ATOMIC_SPECIES
Pt 195.084 Pt_ONCV_PBE-1.2.upf

K_POINTS automatic
4 4 4  0 0 0

CELL_PARAMETERS angstrom
7.89483400000000 0.00000000000000 0.00000000000000
0.00000000000000 7.87004400000000 0.00000000000000
0.00000000000000 0.00000000000000 8.01469200000000

ATOMIC_POSITIONS angstrom
Pt 0.0228547000 0.0160913360 7.8476590000  
Pt 7.7919617000 1.9235657000 2.0463470000  
Pt 1.8833083000 7.8277254000 1.9231061000  
Pt 2.0732381000 1.9413154000 0.1216442900  
Pt 0.0387086160 0.0699451340 4.0210757000  
Pt 0.0631198300 2.0817769000 6.0910770000  
Pt 1.9432487000 0.0793528500 6.0433770000  
Pt 1.9505242000 2.0346324000 4.0614780000  
Pt 0.0307862300 3.9883478000 7.9921236000  
Pt 0.0041907365 5.9529757000 2.1281624000  
Pt 1.8926167000 3.9463410000 2.0196903000  
Pt 2.0650920000 5.9124810000 7.9430640000  
Pt 7.8699765000 3.8939626000 3.9310956000  
Pt 7.7927623000 5.8915360000 5.9689374000  
Pt 1.9807202000 3.9735978000 6.0596680000  
Pt 1.9851763000 5.9163322000 3.9783835000  
Pt 4.0128627000 0.0066573400 7.9063735000  
Pt 4.0131220000 1.7764645000 1.9206246000  
Pt 5.9984155000 7.7258406000 2.0050008000  
Pt 5.9011765000 1.9769304000 0.0338642560  
Pt 3.8827605000 0.0526131200 4.1378126000  
Pt 3.8891275000 1.9844930000 6.0340996000  
Pt 5.9457865000 0.0378499300 6.0396530000  
Pt 5.9458640000 1.9339694000 3.9384136000  
Pt 3.9813461000 3.9389910000 0.1180391400  
Pt 3.8172250000 5.9175906000 2.0765746000  
Pt 6.0095434000 3.9976645000 2.0119600000  
Pt 5.9032426000 5.8676840000 7.9734125000  
Pt 3.9657679000 3.8688865000 3.9812388000  
Pt 3.9464025000 5.9122176000 5.9563518000  
Pt 5.8910403000 3.8751614000 6.0584006000  
Pt 5.9186616000 5.8421187000 3.9025037000  

