&CONTROL
   calculation      = 'scf'
   restart_mode     = 'from_scratch'
   tprnfor          = .true.
   outdir           = './outdir'
   disk_io          = 'none'
   pseudo_dir       = './../pseudo'
/
&SYSTEM
   ibrav            = 0
   nat              = 32
   ntyp             = 1
   nbnd             = 346
   ecutwfc          = 70
   ecutrho          = 280
   occupations      = 'smearing'
   degauss          = 0.02
   smearing         = 'marzari-vanderbilt'
   input_dft        = 'PBE'
/
&ELECTRONS
   electron_maxstep = 200
   conv_thr         = 1e-06
   mixing_beta      = 0.1
   mixing_ndim      = 8
   diagonalization  = 'david'
/
&IONS
/
&CELL
/
&FCP
/
&RISM
/
ATOMIC_SPECIES
Pt 195.084 Pt_ONCV_PBE-1.2.upf

K_POINTS automatic
4 4 4  0 0 0

CELL_PARAMETERS angstrom
7.98542428116386 0.00000000000000 0.00000000000000
0.00000000000000 7.87826225900789 0.00000000000000
0.00000000000000 0.00000000000000 7.99313926766315

ATOMIC_POSITIONS angstrom
Pt 0.0055353088 0.0089391134 -0.0042989839  
Pt 0.0015926133 1.9630009244 2.0131675522  
Pt 1.9778285075 0.0064232961 2.0075248038  
Pt 1.9901858904 1.9636574582 -0.0052780428  
Pt -0.0049348807 0.0033361661 4.0274153420  
Pt 0.0014952529 1.9711092417 6.0451017159  
Pt 1.9742436200 0.0027346645 6.0433677036  
Pt 1.9832018988 1.9711302706 4.0376951353  
Pt 0.0029172616 3.9285613803 0.0009535581  
Pt 0.0001571197 5.9034179318 2.0082309534  
Pt 1.9786948661 3.9432068852 2.0135587933  
Pt 1.9826787171 5.9003454213 0.0072604899  
Pt 0.0004298187 3.9441881620 4.0335880742  
Pt -0.0008123679 5.9126206723 6.0605356094  
Pt 1.9734939352 3.9448578233 6.0598122874  
Pt 1.9807416727 5.8968318917 4.0354328472  
Pt 3.9611527606 -0.0054280569 -0.0053356720  
Pt 3.9607228312 1.9696814855 2.0108267123  
Pt 5.9537190460 0.0007261215 2.0111330556  
Pt 5.9546253763 1.9717199929 0.0039636021  
Pt 3.9675059709 -0.0028840651 4.0324616601  
Pt 3.9734909105 1.9723986415 6.0470507516  
Pt 5.9377960869 -0.0063879213 6.0516788907  
Pt 5.9466391937 1.9686619870 4.0406963646  
Pt 3.9638909172 3.9425097188 0.0009802386  
Pt 3.9738817509 5.9116030474 2.0120198028  
Pt 5.9469767760 3.9291926228 2.0224019236  
Pt 5.9547616276 5.8973407205 -0.0095245785  
Pt 3.9718749817 3.9317521094 4.0294784988  
Pt 3.9592472018 5.9128795119 6.0588383562  
Pt 5.9415184257 3.9343996863 6.0461283978  
Pt 5.9443962813 5.9115165576 4.0277256088  

