&CONTROL
   calculation      = 'scf'
   restart_mode     = 'from_scratch'
   tprnfor          = .true.
   outdir           = './outdir'
   disk_io          = 'none'
   pseudo_dir       = './../pseudo'
/
&SYSTEM
   ibrav            = 0
   nat              = 32
   ntyp             = 1
   nbnd             = 346
   ecutwfc          = 70
   ecutrho          = 280
   occupations      = 'smearing'
   degauss          = 0.02
   smearing         = 'marzari-vanderbilt'
   input_dft        = 'PBE'
/
&ELECTRONS
   electron_maxstep = 200
   conv_thr         = 1e-06
   mixing_beta      = 0.1
   mixing_ndim      = 8
   diagonalization  = 'david'
/
&IONS
/
&CELL
/
&FCP
/
&RISM
/
ATOMIC_SPECIES
Pt 195.084 Pt_ONCV_PBE-1.2.upf

K_POINTS automatic
4 4 4  0 0 0

CELL_PARAMETERS angstrom
7.90664947587389 0.00000000000000 0.00000000000000
0.00000000000000 7.89767529986585 0.00000000000000
0.00000000000000 0.00000000000000 7.91198911713519

ATOMIC_POSITIONS angstrom
Pt -0.0061443389 -0.0040546391 0.0040072436  
Pt 0.0016546216 1.9927659610 1.9899343198  
Pt 2.0004836328 -0.0063818268 1.9859010434  
Pt 1.9887772754 1.9843260329 0.0069767825  
Pt 0.0005083554 -0.0056438161 3.9610127199  
Pt 0.0008206610 1.9872728580 5.9459737935  
Pt 1.9885439258 0.0071365408 5.9412237746  
Pt 1.9872143178 1.9802926311 3.9580765240  
Pt -0.0072800499 3.9685445282 0.0018183738  
Pt 0.0030191233 5.9688256273 1.9868221761  
Pt 2.0010182255 3.9774369066 1.9885855767  
Pt 1.9860350028 5.9594668873 -0.0001268929  
Pt 0.0037878550 3.9729072464 3.9558735591  
Pt 0.0048631847 5.9551625381 5.9396282859  
Pt 1.9960890194 3.9694520896 5.9403517611  
Pt 1.9938052610 5.9618719316 3.9673206243  
Pt 3.9956175810 0.0080304010 -0.0033740533  
Pt 3.9855882492 1.9954744564 1.9783203892  
Pt 5.9749983626 0.0073337583 1.9813243883  
Pt 5.9748549659 1.9835818803 -0.0078812408  
Pt 3.9869030690 -0.0029927485 3.9578938782  
Pt 3.9946785644 1.9812431430 5.9511481252  
Pt 5.9831318640 0.0033432232 5.9506237346  
Pt 5.9889002239 1.9945746927 3.9536322291  
Pt 3.9905581043 3.9743202706 0.0034755602  
Pt 3.9933904604 5.9674443890 1.9904477013  
Pt 5.9847631212 3.9767146677 1.9835180267  
Pt 5.9732583176 5.9622396821 -0.0080435406  
Pt 3.9785525378 3.9714969994 3.9708419333  
Pt 3.9824867309 5.9594224007 5.9412670074  
Pt 5.9873428294 3.9684883430 5.9456126036  
Pt 5.9911422917 5.9661403550 3.9556558689  

