&CONTROL
   calculation      = 'scf'
   restart_mode     = 'from_scratch'
   tprnfor          = .true.
   outdir           = './outdir'
   disk_io          = 'none'
   pseudo_dir       = '/scratch/ch24d003/pseudo'
/
&SYSTEM
   ibrav            = 0
   nat              = 32
   ntyp             = 1
   nbnd             = 346
   ecutwfc          = 70
   ecutrho          = 280
   occupations      = 'smearing'
   degauss          = 0.02
   smearing         = 'marzari-vanderbilt'
   input_dft        = 'PBE'
/
&ELECTRONS
   electron_maxstep = 200
   conv_thr         = 1e-06
   mixing_beta      = 0.1
   mixing_ndim      = 8
   diagonalization  = 'david'
/
&IONS
/
&CELL
/
&FCP
/
&RISM
/
ATOMIC_SPECIES
Pt 195.084 Pt_ONCV_PBE-1.2.upf

K_POINTS automatic
4 4 4  0 0 0

CELL_PARAMETERS angstrom
7.89483400000000 0.00000000000000 0.00000000000000
0.00000000000000 7.87004400000000 0.00000000000000
0.00000000000000 0.00000000000000 8.01469200000000

ATOMIC_POSITIONS angstrom
Pt 7.8746920000 7.8056674000 7.9486160000  
Pt 0.0555481600 1.9178219000 1.9519199000  
Pt 1.8962213000 0.1075104300 2.1050363000  
Pt 1.9330205000 1.8376585000 0.0044215980  
Pt 7.8903584000 0.0663211700 3.9926414000  
Pt 7.8629810000 2.0304103000 6.2333080000  
Pt 1.9724588000 7.7569146000 6.0077167000  
Pt 2.0950900000 1.9717611000 4.1826760000  
Pt 0.1728411900 3.9996270000 0.0960068850  
Pt 7.8253593000 5.8313690000 1.9815983000  
Pt 1.9353950000 4.0964730000 2.1308577000  
Pt 2.0404224000 5.9412470000 7.9425645000  
Pt 0.0457856320 3.8394532000 3.9830966000  
Pt 0.0216903090 5.9351350000 6.0160313000  
Pt 1.9109358000 3.9712515000 6.0108070000  
Pt 1.9964976000 6.0467520000 4.0150730000  
Pt 3.9796271000 0.1028735340 7.9961467000  
Pt 3.9164977000 2.0138319000 2.0353134000  
Pt 6.0053440000 7.7081184000 1.9567223000  
Pt 5.8707147000 2.0420570000 0.0263947970  
Pt 3.9071520000 7.8681770000 4.0947294000  
Pt 3.9938400000 1.9693877000 6.1999760000  
Pt 5.9002414000 7.8058230000 5.8969380000  
Pt 5.9703684000 1.9275796000 3.9064295000  
Pt 3.8341990000 4.0638030000 7.9825430000  
Pt 3.8140986000 6.0097220000 1.9973177000  
Pt 5.9568934000 3.9686930000 1.9833921000  
Pt 5.8949566000 5.8854485000 7.9192705000  
Pt 3.8924048000 3.8416097000 3.9490612000  
Pt 3.9547350000 5.6866975000 5.8149805000  
Pt 5.9897532000 3.9508655000 5.8947000000  
Pt 5.8953414000 5.7751830000 4.0149264000  

