&CONTROL
   calculation      = 'scf'
   restart_mode     = 'from_scratch'
   tprnfor          = .true.
   outdir           = './outdir'
   disk_io          = 'none'
   pseudo_dir       = '/scratch/ch24d003/pseudo'
/
&SYSTEM
   ibrav            = 0
   nat              = 32
   ntyp             = 1
   nbnd             = 346
   ecutwfc          = 70
   ecutrho          = 280
   occupations      = 'smearing'
   degauss          = 0.02
   smearing         = 'marzari-vanderbilt'
   input_dft        = 'PBE'
/
&ELECTRONS
   electron_maxstep = 200
   conv_thr         = 1e-06
   mixing_beta      = 0.1
   mixing_ndim      = 8
   diagonalization  = 'david'
/
&IONS
/
&CELL
/
&FCP
/
&RISM
/
ATOMIC_SPECIES
Pt 195.084 Pt_ONCV_PBE-1.2.upf

K_POINTS automatic
4 4 4  0 0 0

CELL_PARAMETERS angstrom
7.89483400000000 0.00000000000000 0.00000000000000
0.00000000000000 7.87004400000000 0.00000000000000
0.00000000000000 0.00000000000000 8.01469200000000

ATOMIC_POSITIONS angstrom
Pt 0.0479838500 7.8174567000 7.8999110000  
Pt 0.0635219800 2.0075924000 2.0108008000  
Pt 2.0607130000 7.8307180000 1.9148034000  
Pt 1.8933777000 1.9974760000 0.0923078300  
Pt 7.8651690000 7.7851840000 4.0152980000  
Pt 0.0657818240 1.8887256000 5.9799480000  
Pt 1.9737008000 7.8295540000 5.9477873000  
Pt 2.0065308000 1.9542259000 4.0417604000  
Pt 7.8378763000 3.9150070000 0.1003516840  
Pt 7.8708134000 6.0451200000 1.8851436000  
Pt 1.9160757000 4.0145645000 2.1163898000  
Pt 1.9194590000 5.8363476000 0.0000072250  
Pt 0.0154254480 3.8298200000 4.1771360000  
Pt 0.0177904090 5.7806916000 6.0390260000  
Pt 1.9550370000 3.9326792000 6.1866870000  
Pt 1.9444145000 5.9733977000 3.9567256000  
Pt 3.9670298000 0.0786018740 7.9023786000  
Pt 3.9317396000 1.9722760000 1.9878778000  
Pt 5.8827276000 0.0596467070 2.0214942000  
Pt 5.9083433000 2.0277946000 7.9462647000  
Pt 4.0510187000 0.0323959630 3.9956014000  
Pt 3.9020524000 1.9852332000 5.9509783000  
Pt 5.9543880000 0.0076527470 5.9619870000  
Pt 5.9508553000 2.0494175000 3.9898756000  
Pt 3.9274805000 3.9351404000 0.0738468500  
Pt 4.0484220000 5.9028740000 2.0000930000  
Pt 5.9856130000 3.9305007000 1.9933481000  
Pt 5.8806300000 5.8280673000 8.0130500000  
Pt 3.9783762000 3.9634920000 4.0672994000  
Pt 3.8170490000 5.8378660000 6.0471535000  
Pt 5.8358235000 3.9532847000 5.9758677000  
Pt 5.9354105000 5.9023970000 3.9653199000  

