&CONTROL
   calculation      = 'scf'
   restart_mode     = 'from_scratch'
   tprnfor          = .true.
   outdir           = './outdir'
   disk_io          = 'none'
   pseudo_dir       = './../pseudo'
/
&SYSTEM
   ibrav            = 0
   nat              = 32
   ntyp             = 1
   nbnd             = 346
   ecutwfc          = 70
   ecutrho          = 280
   occupations      = 'smearing'
   degauss          = 0.02
   smearing         = 'marzari-vanderbilt'
   input_dft        = 'PBE'
/
&ELECTRONS
   electron_maxstep = 200
   conv_thr         = 1e-06
   mixing_beta      = 0.1
   mixing_ndim      = 8
   diagonalization  = 'david'
/
&IONS
/
&CELL
/
&FCP
/
&RISM
/
ATOMIC_SPECIES
Pt 195.084 Pt_ONCV_PBE-1.2.upf

K_POINTS automatic
4 4 4  0 0 0

CELL_PARAMETERS angstrom
8.02325849591129 0.00000000000000 0.00000000000000
0.00000000000000 8.01908929356882 0.00000000000000
0.00000000000000 0.00000000000000 7.95016268683490

ATOMIC_POSITIONS angstrom
Pt 0.0015467706 -0.0075242814 -0.0060194056  
Pt 0.0064018009 1.9886129517 1.9902635548  
Pt 2.0063394511 0.0048570049 1.9883913985  
Pt 2.0003216060 1.9893911772 0.0087668040  
Pt 0.0060441114 -0.0069091785 3.9819366773  
Pt 0.0061407474 1.9908610619 5.9657271927  
Pt 2.0056568966 0.0063614716 5.9703990175  
Pt 2.0073911326 1.9841016245 3.9728710562  
Pt 0.0091217051 3.9885929141 -0.0022581427  
Pt -0.0073905467 5.9825518541 1.9942340791  
Pt 2.0094893374 3.9816934154 1.9957833236  
Pt 2.0116187809 5.9679509102 0.0048956351  
Pt -0.0018287795 3.9929176293 3.9703792160  
Pt -0.0086430149 5.9789841949 5.9718894927  
Pt 1.9975646785 3.9812100872 5.9742587710  
Pt 2.0030472427 5.9809250999 3.9813271845  
Pt 4.0096287810 -0.0083758314 0.0099357460  
Pt 4.0126866105 1.9875294591 1.9812341959  
Pt 6.0080955794 0.0040291773 1.9831636387  
Pt 6.0037315963 1.9923632142 0.0095524376  
Pt 4.0033480721 0.0001920051 3.9724302046  
Pt 4.0033531415 1.9893122290 5.9602068165  
Pt 6.0027344245 -0.0048655602 5.9712153876  
Pt 6.0006500657 1.9933781853 3.9699596449  
Pt 4.0147009584 3.9944947507 -0.0092006231  
Pt 4.0111217853 5.9696275272 1.9889537932  
Pt 6.0060016640 3.9812997033 1.9788929671  
Pt 6.0024667413 5.9711177918 -0.0052431662  
Pt 4.0077722159 3.9766987936 3.9852476981  
Pt 3.9985464376 5.9821637981 5.9582922260  
Pt 6.0042606065 3.9904570218 5.9575659130  
Pt 6.0157300590 5.9788083812 3.9726475109  

