&CONTROL
   calculation      = 'scf'
   restart_mode     = 'from_scratch'
   tprnfor          = .true.
   outdir           = './outdir'
   disk_io          = 'none'
   pseudo_dir       = './../pseudo'
/
&SYSTEM
   ibrav            = 0
   nat              = 32
   ntyp             = 1
   nbnd             = 346
   ecutwfc          = 70
   ecutrho          = 280
   occupations      = 'smearing'
   degauss          = 0.02
   smearing         = 'marzari-vanderbilt'
   input_dft        = 'PBE'
/
&ELECTRONS
   electron_maxstep = 200
   conv_thr         = 1e-06
   mixing_beta      = 0.1
   mixing_ndim      = 8
   diagonalization  = 'david'
/
&IONS
/
&CELL
/
&FCP
/
&RISM
/
ATOMIC_SPECIES
Pt 195.084 Pt_ONCV_PBE-1.2.upf

K_POINTS automatic
4 4 4  0 0 0

CELL_PARAMETERS angstrom
7.92889204685754 0.00000000000000 0.00000000000000
0.00000000000000 7.91664166836886 0.00000000000000
0.00000000000000 0.00000000000000 7.92834389008425

ATOMIC_POSITIONS angstrom
Pt 0.0060572349 0.0014256503 -0.0008599278  
Pt 0.0012818728 1.9690506718 1.9729481638  
Pt 1.9718819258 0.0062109454 1.9793802761  
Pt 1.9788800696 1.9764521035 0.0039360382  
Pt -0.0071736800 0.0049935437 3.9437589850  
Pt 0.0080818736 1.9813941384 5.9096568395  
Pt 1.9755770617 0.0091041200 5.9067918237  
Pt 1.9822575599 1.9720327405 3.9464737429  
Pt -0.0043784911 3.9440585629 -0.0049711002  
Pt 0.0042378154 5.9245141558 1.9659839298  
Pt 1.9743067431 3.9457934480 1.9740936069  
Pt 1.9855930261 5.9104416867 -0.0086683543  
Pt -0.0025603780 3.9533018276 3.9480026190  
Pt -0.0018508342 5.9087592319 5.9152198450  
Pt 1.9700402862 3.9524207386 5.9099670146  
Pt 1.9683671619 5.9235820318 3.9321855734  
Pt 3.9520851669 -0.0074297678 -0.0030231793  
Pt 3.9479664702 1.9779727139 1.9682420461  
Pt 5.9332567177 -0.0005067344 1.9723515703  
Pt 5.9391138951 1.9727537923 0.0060947629  
Pt 3.9486256762 -0.0014877144 3.9417795620  
Pt 3.9467335382 1.9637906787 5.9190117304  
Pt 5.9268730214 0.0008619765 5.9216402850  
Pt 5.9213936391 1.9678437259 3.9339223262  
Pt 3.9493292829 3.9487081816 -0.0036485068  
Pt 3.9485698671 5.9158013686 1.9699080128  
Pt 5.9256478977 3.9525979728 1.9675685218  
Pt 5.9362994032 5.9126984660 0.0087810230  
Pt 3.9517848117 3.9533419658 3.9362517979  
Pt 3.9430799838 5.9119788896 5.9025374345  
Pt 5.9389930152 3.9520807723 5.9088485975  
Pt 5.9368238003 5.9099798713 3.9363054956  

