&CONTROL
   calculation      = 'scf'
   restart_mode     = 'from_scratch'
   tprnfor          = .true.
   outdir           = './outdir'
   disk_io          = 'none'
   pseudo_dir       = '/scratch/ch24d003/pseudo'
/
&SYSTEM
   ibrav            = 0
   nat              = 32
   ntyp             = 1
   nbnd             = 346
   ecutwfc          = 70
   ecutrho          = 280
   occupations      = 'smearing'
   degauss          = 0.02
   smearing         = 'marzari-vanderbilt'
   input_dft        = 'PBE'
/
&ELECTRONS
   electron_maxstep = 200
   conv_thr         = 1e-06
   mixing_beta      = 0.1
   mixing_ndim      = 8
   diagonalization  = 'david'
/
&IONS
/
&CELL
/
&FCP
/
&RISM
/
ATOMIC_SPECIES
Pt 195.084 Pt_ONCV_PBE-1.2.upf

K_POINTS automatic
4 4 4  0 0 0

CELL_PARAMETERS angstrom
7.89483400000000 0.00000000000000 0.00000000000000
0.00000000000000 7.87004400000000 0.00000000000000
0.00000000000000 0.00000000000000 8.01469200000000

ATOMIC_POSITIONS angstrom
Pt 7.8863583000 0.0603526700 7.9796734000  
Pt 7.8550390000 1.9195075000 1.9561791000  
Pt 1.9295098000 0.1113989060 1.9402467000  
Pt 1.9755812000 1.9208730000 7.8394820000  
Pt 0.0770459400 0.1079300050 3.9626954000  
Pt 7.7538943000 1.9974424000 6.0990877000  
Pt 1.9752846000 7.7971787000 6.0345917000  
Pt 1.9736028000 2.0267980000 4.1222315000  
Pt 7.8460510000 3.9047015000 0.0843860950  
Pt 7.8396077000 5.9542065000 2.1066175000  
Pt 2.0317800000 3.8224885000 2.0353970000  
Pt 2.0178127000 5.8858650000 0.0132875290  
Pt 0.0925418800 3.9673011000 3.9241100000  
Pt 0.0452013160 5.8889290000 6.0051208000  
Pt 2.0391886000 3.9606423000 6.1572350000  
Pt 2.0410075000 5.9065450000 4.1324162000  
Pt 4.0042276000 7.7420673000 0.0070790910  
Pt 3.9437566000 1.9753059000 1.9155422000  
Pt 5.8288674000 0.0168274620 2.0312757000  
Pt 5.9378240000 1.9236481000 8.0001210000  
Pt 3.9240534000 0.0221248640 3.9777179000  
Pt 3.8997178000 1.9699850000 6.0082026000  
Pt 5.9093770000 7.8509107000 5.9653590000  
Pt 5.8906700000 1.9854149000 3.9783418000  
Pt 4.0140290000 3.7772963000 7.9867525000  
Pt 3.8332849000 5.9154510000 2.0024380000  
Pt 5.8884500000 4.0832200000 2.0116336000  
Pt 5.8924127000 5.8928640000 7.9904050000  
Pt 3.9677756000 4.0225370000 3.9466380000  
Pt 3.9989140000 5.8426390000 6.0315550000  
Pt 5.9011260000 3.8675430000 5.9790864000  
Pt 5.9863040000 5.9151610000 4.0463050000  

