&CONTROL
   calculation      = 'scf'
   restart_mode     = 'from_scratch'
   tprnfor          = .true.
   outdir           = './outdir'
   disk_io          = 'none'
   pseudo_dir       = '/scratch/ch24d003/pseudo'
/
&SYSTEM
   ibrav            = 0
   nat              = 32
   ntyp             = 1
   nbnd             = 346
   ecutwfc          = 70
   ecutrho          = 280
   occupations      = 'smearing'
   degauss          = 0.02
   smearing         = 'marzari-vanderbilt'
   input_dft        = 'PBE'
/
&ELECTRONS
   electron_maxstep = 200
   conv_thr         = 1e-06
   mixing_beta      = 0.1
   mixing_ndim      = 8
   diagonalization  = 'david'
/
&IONS
/
&CELL
/
&FCP
/
&RISM
/
ATOMIC_SPECIES
Pt 195.084 Pt_ONCV_PBE-1.2.upf

K_POINTS automatic
4 4 4  0 0 0

CELL_PARAMETERS angstrom
7.89483400000000 0.00000000000000 0.00000000000000
0.00000000000000 7.87004400000000 0.00000000000000
0.00000000000000 0.00000000000000 8.01469200000000

ATOMIC_POSITIONS angstrom
Pt 7.7783585000 0.0001180086 7.9308286000  
Pt 7.8749743000 1.9549681000 2.0659869000  
Pt 1.9108553000 0.1076526600 1.9927999000  
Pt 2.0105975000 1.9999855000 0.1028362300  
Pt 0.0634627400 7.8246684000 3.9805480000  
Pt 0.0626657800 1.9731586000 6.0256570000  
Pt 2.0573635000 0.0232508950 6.1072636000  
Pt 1.9909317000 2.0986060000 3.9574423000  
Pt 7.8096820000 3.9636220000 0.0644621300  
Pt 7.8269153000 5.9354753000 1.9417747000  
Pt 1.9593186000 3.9781547000 1.9995649000  
Pt 1.9321520000 6.0153766000 7.9926195000  
Pt 7.8517830000 3.9140180000 4.1079164000  
Pt 0.0862244400 5.8388630000 5.9320250000  
Pt 1.9072291000 3.8946216000 6.0321426000  
Pt 2.0127256000 5.8639584000 3.9161800000  
Pt 3.9521253000 0.0454362330 7.9596243000  
Pt 4.0200458000 1.9349601000 1.9772068000  
Pt 5.9544130000 7.8232064000 2.0580375000  
Pt 5.9720100000 1.9480734000 0.0073117390  
Pt 3.9089355000 7.8314620000 3.9802759000  
Pt 3.8705368000 2.0037014000 5.9760100000  
Pt 5.9042196000 0.0377859500 5.8831540000  
Pt 5.9041076000 1.9110105000 4.0454300000  
Pt 3.9777555000 3.8907400000 7.9835660000  
Pt 4.0269723000 5.8451214000 2.0550140000  
Pt 5.9515657000 3.8838964000 2.0534060000  
Pt 5.8770160000 5.8539440000 7.9942880000  
Pt 3.8918740000 3.9299364000 4.0131474000  
Pt 3.8583060000 5.9156094000 5.9760240000  
Pt 6.0417905000 3.9268413000 6.0835857000  
Pt 5.9533844000 5.8669343000 4.0750837000  

