&CONTROL
   calculation      = 'scf'
   restart_mode     = 'from_scratch'
   tprnfor          = .true.
   outdir           = './outdir'
   disk_io          = 'none'
   pseudo_dir       = '/scratch/ch24d003/pseudo'
/
&SYSTEM
   ibrav            = 0
   nat              = 32
   ntyp             = 1
   nbnd             = 346
   ecutwfc          = 70
   ecutrho          = 280
   occupations      = 'smearing'
   degauss          = 0.02
   smearing         = 'marzari-vanderbilt'
   input_dft        = 'PBE'
/
&ELECTRONS
   electron_maxstep = 200
   conv_thr         = 1e-06
   mixing_beta      = 0.1
   mixing_ndim      = 8
   diagonalization  = 'david'
/
&IONS
/
&CELL
/
&FCP
/
&RISM
/
ATOMIC_SPECIES
Pt 195.084 Pt_ONCV_PBE-1.2.upf

K_POINTS automatic
4 4 4  0 0 0

CELL_PARAMETERS angstrom
7.89483400000000 0.00000000000000 0.00000000000000
0.00000000000000 7.87004400000000 0.00000000000000
0.00000000000000 0.00000000000000 8.01469200000000

ATOMIC_POSITIONS angstrom
Pt 7.7428555000 7.8458276000 0.0590706100  
Pt 7.8681400000 1.8599317000 2.0134547000  
Pt 1.9842395000 7.8314962000 1.9611728000  
Pt 1.9758413000 1.8779348000 7.9787316000  
Pt 0.0591544620 0.1438743200 4.0950700000  
Pt 7.8323850000 2.0084083000 6.0796570000  
Pt 2.0211608000 0.0744128300 6.0381810000  
Pt 1.9492279000 2.0071929000 4.1257050000  
Pt 7.8328020000 3.9038153000 8.0108610000  
Pt 7.8685403000 5.7689495000 2.1452076000  
Pt 1.9497597000 3.8633680000 1.9215310000  
Pt 1.8839991000 5.9494110000 7.9102320000  
Pt 0.0192518870 3.8976717000 4.1760297000  
Pt 0.0073369304 6.0395346000 6.0252750000  
Pt 1.9571580000 4.0675883000 6.0487747000  
Pt 1.9684874000 5.8533077000 4.0359340000  
Pt 4.0319967000 7.8683906000 7.9537190000  
Pt 3.8379006000 1.9424585000 2.0238533000  
Pt 5.8973730000 7.8696675000 1.9597607000  
Pt 5.8818100000 2.0025240000 0.0051823542  
Pt 4.1124490000 0.0329517130 3.9668350000  
Pt 4.0216900000 1.9978535000 5.9215490000  
Pt 5.8518553000 0.0281042330 5.9800670000  
Pt 5.9136324000 2.0485353000 3.9488192000  
Pt 3.9438790000 3.8547692000 7.9691920000  
Pt 3.9172761000 5.9096146000 1.9652841000  
Pt 6.0350866000 3.8941824000 2.0583882000  
Pt 5.9560795000 5.7407960000 8.0137360000  
Pt 3.9638011000 3.9207306000 3.8658333000  
Pt 3.9249895000 5.9552920000 5.9600860000  
Pt 6.0245733000 3.9625804000 5.9562607000  
Pt 5.9655657000 5.8840250000 4.1124530000  

