&CONTROL
   calculation      = 'scf'
   restart_mode     = 'from_scratch'
   tprnfor          = .true.
   outdir           = './outdir'
   disk_io          = 'none'
   pseudo_dir       = '/scratch/ch24d003/pseudo'
/
&SYSTEM
   ibrav            = 0
   nat              = 32
   ntyp             = 1
   nbnd             = 346
   ecutwfc          = 70
   ecutrho          = 280
   occupations      = 'smearing'
   degauss          = 0.02
   smearing         = 'marzari-vanderbilt'
   input_dft        = 'PBE'
/
&ELECTRONS
   electron_maxstep = 200
   conv_thr         = 1e-06
   mixing_beta      = 0.1
   mixing_ndim      = 8
   diagonalization  = 'david'
/
&IONS
/
&CELL
/
&FCP
/
&RISM
/
ATOMIC_SPECIES
Pt 195.084 Pt_ONCV_PBE-1.2.upf

K_POINTS automatic
4 4 4  0 0 0

CELL_PARAMETERS angstrom
7.89483400000000 0.00000000000000 0.00000000000000
0.00000000000000 7.87004400000000 0.00000000000000
0.00000000000000 0.00000000000000 8.01469200000000

ATOMIC_POSITIONS angstrom
Pt 0.0129520980 0.0105626695 7.9237170000  
Pt 0.1098820500 1.8662384000 1.9503992000  
Pt 1.9005612000 7.8019540000 2.0168020000  
Pt 2.0733812000 2.0576067000 8.0043910000  
Pt 7.8725033000 7.8629160000 4.0548825000  
Pt 7.8908070000 2.0788863000 6.1516400000  
Pt 2.0699542000 7.8324137000 6.0023756000  
Pt 1.9423482000 1.9148899000 4.0540013000  
Pt 7.8705482000 3.9402516000 0.0177153050  
Pt 7.7818155000 5.8595680000 2.0272558000  
Pt 2.0080390000 3.9328146000 2.0565476000  
Pt 1.9646443000 5.8667016000 0.0489391460  
Pt 7.8475400000 3.8844190000 3.9876020000  
Pt 0.0680747400 6.0029410000 5.9959707000  
Pt 1.8876101000 3.9561942000 5.9345317000  
Pt 1.8779924000 5.8922877000 3.9179616000  
Pt 3.9001002000 0.0148746280 7.9775624000  
Pt 3.9195700000 1.9297627000 2.0525477000  
Pt 5.9189396000 0.0486389360 1.9199976000  
Pt 5.9371910000 2.0272813000 0.0051664270  
Pt 3.9771900000 7.7917460000 4.0089717000  
Pt 3.8928864000 1.9143703000 5.9675813000  
Pt 5.9568900000 0.0592574370 5.9708166000  
Pt 5.9152493000 1.9898630000 4.0156930000  
Pt 3.9668380000 3.9381886000 7.9992990000  
Pt 3.9544687000 5.8281813000 2.0055980000  
Pt 6.0211916000 3.7848656000 2.1203387000  
Pt 5.9411090000 5.9820000000 0.0687734100  
Pt 3.9105800000 3.9490285000 4.0248065000  
Pt 3.9978280000 5.9302845000 6.0277567000  
Pt 5.8714175000 4.0216274000 6.0549880000  
Pt 5.9401930000 5.9345846000 3.8918903000  

