&CONTROL
   calculation      = 'scf'
   restart_mode     = 'from_scratch'
   tprnfor          = .true.
   outdir           = './outdir'
   disk_io          = 'none'
   pseudo_dir       = '/scratch/ch24d003/pseudo'
/
&SYSTEM
   ibrav            = 0
   nat              = 32
   ntyp             = 1
   nbnd             = 346
   ecutwfc          = 70
   ecutrho          = 280
   occupations      = 'smearing'
   degauss          = 0.02
   smearing         = 'marzari-vanderbilt'
   input_dft        = 'PBE'
/
&ELECTRONS
   electron_maxstep = 200
   conv_thr         = 1e-06
   mixing_beta      = 0.1
   mixing_ndim      = 8
   diagonalization  = 'david'
/
&IONS
/
&CELL
/
&FCP
/
&RISM
/
ATOMIC_SPECIES
Pt 195.084 Pt_ONCV_PBE-1.2.upf

K_POINTS automatic
4 4 4  0 0 0

CELL_PARAMETERS angstrom
7.89483400000000 0.00000000000000 0.00000000000000
0.00000000000000 7.87004400000000 0.00000000000000
0.00000000000000 0.00000000000000 8.01469200000000

ATOMIC_POSITIONS angstrom
Pt 0.0757023000 7.8322910000 7.9706154000  
Pt 7.7541940000 1.9602920000 1.8791593000  
Pt 2.0312872000 0.1188913700 1.9308246000  
Pt 1.9494720000 2.0290844000 0.0303755870  
Pt 0.0445877240 0.0199479610 3.9958270000  
Pt 0.0087218080 1.9451520000 6.0344462000  
Pt 2.0532033000 7.7973533000 5.9130420000  
Pt 2.0332544000 1.9989661000 4.1234994000  
Pt 7.8814187000 3.8280754000 7.9774310000  
Pt 7.8851160000 5.8731213000 1.9559700000  
Pt 1.9512293000 3.8637360000 2.0160477000  
Pt 1.9657677000 5.8737607000 0.0223629700  
Pt 7.8572670000 4.0417275000 4.1460680000  
Pt 7.8768644000 5.9213410000 6.1371737000  
Pt 1.9769186000 4.0103884000 6.0836870000  
Pt 1.9829863000 5.8970127000 3.8242033000  
Pt 3.9837198000 0.0351624040 7.9694147000  
Pt 4.0031910000 2.0778053000 2.0587630000  
Pt 5.8976990000 7.8402440000 2.0247450000  
Pt 5.8622336000 1.8349317000 7.9932957000  
Pt 3.9087434000 7.7686524000 3.8510795000  
Pt 3.8761725000 1.8988534000 5.9906535000  
Pt 5.8232690000 7.8052754000 5.9253080000  
Pt 5.9971610000 1.9555218000 4.0932574000  
Pt 4.0128975000 3.8763387000 7.9727590000  
Pt 3.8852065000 5.8862130000 1.9121839000  
Pt 5.9253745000 4.1262383000 2.0692270000  
Pt 5.9656450000 5.9808965000 7.9574456000  
Pt 3.9131930000 3.9135475000 4.1366680000  
Pt 3.9815302000 5.9301023000 6.0802946000  
Pt 5.8872256000 3.8636463000 6.1263433000  
Pt 5.9490457000 5.9706720000 4.0837330000  

