&CONTROL
   calculation      = 'scf'
   restart_mode     = 'from_scratch'
   tprnfor          = .true.
   outdir           = './outdir'
   disk_io          = 'none'
   pseudo_dir       = './../pseudo'
/
&SYSTEM
   ibrav            = 0
   nat              = 32
   ntyp             = 1
   nbnd             = 346
   ecutwfc          = 70
   ecutrho          = 280
   occupations      = 'smearing'
   degauss          = 0.02
   smearing         = 'marzari-vanderbilt'
   input_dft        = 'PBE'
/
&ELECTRONS
   electron_maxstep = 200
   conv_thr         = 1e-06
   mixing_beta      = 0.1
   mixing_ndim      = 8
   diagonalization  = 'david'
/
&IONS
/
&CELL
/
&FCP
/
&RISM
/
ATOMIC_SPECIES
Pt 195.084 Pt_ONCV_PBE-1.2.upf

K_POINTS automatic
4 4 4  0 0 0

CELL_PARAMETERS angstrom
7.96306618120374 0.00000000000000 0.00000000000000
0.00000000000000 7.98491386819165 0.00000000000000
0.00000000000000 0.00000000000000 7.92093985615700

ATOMIC_POSITIONS angstrom
Pt -0.0019950503 0.0057687991 -0.0040251523  
Pt -0.0044283919 1.9983355677 1.9707166926  
Pt 1.9739171902 -0.0100488517 1.9638587334  
Pt 1.9638872266 2.0111219520 -0.0065765047  
Pt 0.0012341491 0.0098330963 3.9386408850  
Pt -0.0038556780 1.9990584605 5.8911769594  
Pt 1.9760280684 -0.0017138394 5.9037893661  
Pt 1.9678202106 1.9955214288 3.9356255887  
Pt -0.0031393687 4.0069140630 -0.0057864045  
Pt -0.0051648923 6.0106468935 1.9716659819  
Pt 1.9645975734 4.0133888154 1.9597830193  
Pt 1.9678799956 6.0092965247 -0.0055706610  
Pt -0.0035414682 4.0169608812 3.9408505309  
Pt -0.0030250934 6.0067897074 5.9055675600  
Pt 1.9634166222 4.0127355514 5.9035848892  
Pt 1.9671705015 6.0019259734 3.9328848668  
Pt 3.9365543591 0.0068449943 0.0086826752  
Pt 3.9477554658 2.0117357146 1.9651762526  
Pt 5.9125565246 0.0058710234 1.9732058665  
Pt 5.9237951712 2.0054553685 0.0031038617  
Pt 3.9448542401 -0.0024655926 3.9374398897  
Pt 3.9486405952 2.0017766844 5.8918510076  
Pt 5.9235942285 0.0071572610 5.8915494037  
Pt 5.9131295054 2.0041659891 3.9220335940  
Pt 3.9484539695 4.0164229179 -0.0098648152  
Pt 3.9465362508 6.0048483859 1.9685143433  
Pt 5.9115586535 4.0020277811 1.9674471897  
Pt 5.9247496533 6.0150700298 0.0058182553  
Pt 3.9432603085 3.9978846225 3.9385103927  
Pt 3.9396758095 6.0090223411 5.9035613224  
Pt 5.9090241786 4.0107534793 5.8924552845  
Pt 5.9143662007 6.0123617937 3.9263118521  

