&CONTROL
   calculation      = 'scf'
   restart_mode     = 'from_scratch'
   tprnfor          = .true.
   outdir           = './outdir'
   disk_io          = 'none'
   pseudo_dir       = '/scratch/ch24d003/pseudo'
/
&SYSTEM
   ibrav            = 0
   nat              = 32
   ntyp             = 1
   nbnd             = 346
   ecutwfc          = 70
   ecutrho          = 280
   occupations      = 'smearing'
   degauss          = 0.02
   smearing         = 'marzari-vanderbilt'
   input_dft        = 'PBE'
/
&ELECTRONS
   electron_maxstep = 200
   conv_thr         = 1e-06
   mixing_beta      = 0.1
   mixing_ndim      = 8
   diagonalization  = 'david'
/
&IONS
/
&CELL
/
&FCP
/
&RISM
/
ATOMIC_SPECIES
Pt 195.084 Pt_ONCV_PBE-1.2.upf

K_POINTS automatic
4 4 4  0 0 0

CELL_PARAMETERS angstrom
7.89483400000000 0.00000000000000 0.00000000000000
0.00000000000000 7.87004400000000 0.00000000000000
0.00000000000000 0.00000000000000 8.01469200000000

ATOMIC_POSITIONS angstrom
Pt 7.8474240000 0.0192255680 7.9855430000  
Pt 0.0136102120 2.0064450000 1.9819824000  
Pt 2.0517836000 7.8636975000 1.9837519000  
Pt 1.9512205000 1.9949397000 7.9634110000  
Pt 7.8161920000 7.7562704000 3.9113140000  
Pt 7.8414340000 2.0248130000 6.0814357000  
Pt 1.9437898000 7.7431936000 6.0974936000  
Pt 1.8253751000 1.8385955000 3.9985485000  
Pt 0.0444686260 4.0448613000 0.0900185500  
Pt 0.0856490360 5.9124120000 2.0169473000  
Pt 2.0311534000 3.9729273000 2.1112876000  
Pt 2.0350564000 5.8942890000 0.0834268560  
Pt 0.0227484900 3.9286861000 4.0547890000  
Pt 7.8667290000 5.9678370000 6.0845870000  
Pt 1.9425004000 3.9306397000 6.0977135000  
Pt 1.9567894000 5.9410977000 4.0386450000  
Pt 3.9269943000 0.0737766400 7.9247518000  
Pt 3.8001730000 1.9709377000 2.0032265000  
Pt 5.8604490000 0.0816053600 1.9586143000  
Pt 5.9760680000 1.9771037000 7.9904017000  
Pt 3.9190898000 7.8574730000 3.9994476000  
Pt 3.8905290000 1.9271803000 5.9292310000  
Pt 5.8936462000 0.0856789000 6.0683680000  
Pt 6.0246367000 1.9227136000 4.0302978000  
Pt 4.0182110000 3.8426640000 7.9669450000  
Pt 4.0426335000 5.8783490000 1.9582388000  
Pt 5.8996440000 3.8968400000 2.0115054000  
Pt 5.8738775000 5.9477300000 0.0242788180  
Pt 3.9595120000 3.8264150000 3.9800553000  
Pt 3.9931135000 5.8933053000 6.0040584000  
Pt 5.9817195000 3.9983935000 5.9463060000  
Pt 5.9692430000 5.8851030000 3.8945909000  

