&CONTROL
   calculation      = 'scf'
   restart_mode     = 'from_scratch'
   tprnfor          = .true.
   outdir           = './outdir'
   disk_io          = 'none'
   pseudo_dir       = '/scratch/ch24d003/pseudo'
/
&SYSTEM
   ibrav            = 0
   nat              = 32
   ntyp             = 1
   nbnd             = 346
   ecutwfc          = 70
   ecutrho          = 280
   occupations      = 'smearing'
   degauss          = 0.02
   smearing         = 'marzari-vanderbilt'
   input_dft        = 'PBE'
/
&ELECTRONS
   electron_maxstep = 200
   conv_thr         = 1e-06
   mixing_beta      = 0.1
   mixing_ndim      = 8
   diagonalization  = 'david'
/
&IONS
/
&CELL
/
&FCP
/
&RISM
/
ATOMIC_SPECIES
Pt 195.084 Pt_ONCV_PBE-1.2.upf

K_POINTS automatic
4 4 4  0 0 0

CELL_PARAMETERS angstrom
7.89483400000000 0.00000000000000 0.00000000000000
0.00000000000000 7.87004400000000 0.00000000000000
0.00000000000000 0.00000000000000 8.01469200000000

ATOMIC_POSITIONS angstrom
Pt 0.0659826200 7.8062224000 0.0853907000  
Pt 7.7702284000 1.9659811000 2.0702844000  
Pt 1.9475421000 0.0036788527 2.1122546000  
Pt 1.8674439000 2.0361707000 8.0086090000  
Pt 0.0695841600 0.1390676800 4.0514960000  
Pt 0.2145552000 1.8334125000 6.0241814000  
Pt 2.0307765000 7.6134825000 6.0744840000  
Pt 2.0354602000 2.0415680000 4.0493183000  
Pt 7.8507890000 3.8763611000 0.0677771100  
Pt 7.7540736000 5.8342200000 2.0287728000  
Pt 1.8564477000 3.9483745000 2.0488112000  
Pt 1.8286692000 5.7085814000 0.0146193430  
Pt 0.1375546600 3.9485629000 4.1310253000  
Pt 0.0361640200 5.9504833000 5.9414980000  
Pt 2.1105010000 3.9851660000 5.9234805000  
Pt 2.0207430000 5.8697290000 4.0239315000  
Pt 3.9581501000 7.8660126000 0.1129228000  
Pt 3.9203950000 2.0463428000 1.8562754000  
Pt 5.8728876000 0.1200381140 1.9055952000  
Pt 5.9689070000 1.9725969000 7.8928986000  
Pt 4.0468960000 7.8493900000 3.9637473000  
Pt 3.7930577000 1.8642275000 5.9694786000  
Pt 5.9130780000 0.0783157700 6.0380063000  
Pt 5.9996430000 2.1315070000 4.1919120000  
Pt 3.9483662000 3.8879560000 7.9724813000  
Pt 3.9524524000 5.8929030000 2.0633392000  
Pt 5.8157086000 3.9451747000 1.9200281000  
Pt 5.9171240000 5.9398503000 7.9118330000  
Pt 3.8987490000 3.9239063000 3.9264514000  
Pt 4.0117160000 5.8832130000 6.0025377000  
Pt 5.8959084000 3.9801600000 6.0300775000  
Pt 5.9010773000 5.9625435000 3.8430010000  

