&CONTROL
   calculation      = 'scf'
   restart_mode     = 'from_scratch'
   tprnfor          = .true.
   outdir           = './outdir'
   disk_io          = 'none'
   pseudo_dir       = '/scratch/ch24d003/pseudo'
/
&SYSTEM
   ibrav            = 0
   nat              = 32
   ntyp             = 1
   nbnd             = 346
   ecutwfc          = 70
   ecutrho          = 280
   occupations      = 'smearing'
   degauss          = 0.02
   smearing         = 'marzari-vanderbilt'
   input_dft        = 'PBE'
/
&ELECTRONS
   electron_maxstep = 200
   conv_thr         = 1e-06
   mixing_beta      = 0.1
   mixing_ndim      = 8
   diagonalization  = 'david'
/
&IONS
/
&CELL
/
&FCP
/
&RISM
/
ATOMIC_SPECIES
Pt 195.084 Pt_ONCV_PBE-1.2.upf

K_POINTS automatic
4 4 4  0 0 0

CELL_PARAMETERS angstrom
7.89483400000000 0.00000000000000 0.00000000000000
0.00000000000000 7.87004400000000 0.00000000000000
0.00000000000000 0.00000000000000 8.01469200000000

ATOMIC_POSITIONS angstrom
Pt 7.8646617000 7.8159680000 7.9095740000  
Pt 0.0741200600 2.0810199000 2.1049614000  
Pt 1.8924688000 7.8010800000 2.0389943000  
Pt 1.9098134000 1.8345802000 7.9765720000  
Pt 0.0690695700 0.0303246840 4.0179230000  
Pt 7.8901640000 2.1258624000 5.9084783000  
Pt 1.9310020000 7.7813170000 5.9821944000  
Pt 2.0020573000 2.0192125000 3.9142240000  
Pt 0.0384056460 4.0008745000 7.9750338000  
Pt 7.8835316000 5.8730392000 2.1338105000  
Pt 2.1282778000 4.0436980000 2.0485418000  
Pt 1.9473910000 5.8491282000 0.0054621980  
Pt 0.0222919710 4.0151470000 4.0493270000  
Pt 7.8158393000 5.8671600000 5.9852390000  
Pt 1.9337211000 3.8655226000 5.9966290000  
Pt 1.9898851000 5.9055780000 3.9190793000  
Pt 3.9225512000 0.0471672340 7.9862733000  
Pt 3.8934004000 1.8995697000 2.0601132000  
Pt 5.9517280000 0.0814450200 2.0414894000  
Pt 5.9479856000 1.9103640000 0.0261392090  
Pt 3.8383687000 7.8317460000 3.9456990000  
Pt 3.8859460000 1.9073482000 6.0037600000  
Pt 5.9289794000 0.0670796260 5.8623924000  
Pt 5.9950767000 2.0302384000 4.0369387000  
Pt 3.9647236000 3.9350100000 0.0818002200  
Pt 4.0106550000 5.9220200000 1.9229927000  
Pt 5.8909450000 3.8606179000 2.0315676000  
Pt 5.9180117000 5.8988940000 0.0834757600  
Pt 4.0625873000 3.9453292000 4.0846276000  
Pt 3.9364972000 5.8853940000 6.0093420000  
Pt 5.9194307000 3.9015677000 6.1652627000  
Pt 5.8458770000 5.8718967000 3.9486020000  

