&CONTROL
   calculation      = 'scf'
   restart_mode     = 'from_scratch'
   tprnfor          = .true.
   outdir           = './outdir'
   disk_io          = 'none'
   pseudo_dir       = '/scratch/ch24d003/pseudo'
/
&SYSTEM
   ibrav            = 0
   nat              = 32
   ntyp             = 1
   nbnd             = 346
   ecutwfc          = 70
   ecutrho          = 280
   occupations      = 'smearing'
   degauss          = 0.02
   smearing         = 'marzari-vanderbilt'
   input_dft        = 'PBE'
/
&ELECTRONS
   electron_maxstep = 200
   conv_thr         = 1e-06
   mixing_beta      = 0.1
   mixing_ndim      = 8
   diagonalization  = 'david'
/
&IONS
/
&CELL
/
&FCP
/
&RISM
/
ATOMIC_SPECIES
Pt 195.084 Pt_ONCV_PBE-1.2.upf

K_POINTS automatic
4 4 4  0 0 0

CELL_PARAMETERS angstrom
7.89483400000000 0.00000000000000 0.00000000000000
0.00000000000000 7.87004400000000 0.00000000000000
0.00000000000000 0.00000000000000 8.01469200000000

ATOMIC_POSITIONS angstrom
Pt 7.8436604000 0.0941878300 7.9145827000  
Pt 7.8945730000 1.9142466000 1.9454929000  
Pt 1.9602717000 7.8166670000 1.9914937000  
Pt 1.9685019000 2.0787954000 8.0048990000  
Pt 0.0488760730 7.8255305000 3.9519374000  
Pt 0.0636982900 2.0361030000 5.9824347000  
Pt 1.9532162000 7.8527174000 6.1430173000  
Pt 1.9732358000 1.7977159000 4.0732350000  
Pt 0.0310836060 4.0517690000 7.8878000000  
Pt 7.8469296000 5.9066030000 1.9547460000  
Pt 1.8877882000 3.8803418000 1.9339238000  
Pt 1.8902434000 5.9604807000 0.0151356880  
Pt 7.8387370000 4.0000040000 3.9264280000  
Pt 7.8910780000 5.9731116000 5.9288945000  
Pt 1.9068240000 4.0086690000 6.0323740000  
Pt 1.9589916000 5.8222380000 4.0578566000  
Pt 3.8827002000 7.7356800000 0.0333715230  
Pt 3.9697200000 1.9761199000 1.9258484000  
Pt 5.8954500000 0.0209456660 1.9489706000  
Pt 5.9765940000 2.0063102000 7.9699593000  
Pt 3.9951677000 0.0076248357 3.9377015000  
Pt 3.8724957000 1.9531115000 6.0975103000  
Pt 5.9588370000 0.0354016570 5.9693870000  
Pt 5.9201055000 1.9544350000 4.0862030000  
Pt 4.0118110000 3.9733944000 0.0656652200  
Pt 4.0817966000 5.7663880000 2.1567779000  
Pt 5.9666330000 3.9617486000 2.0600843000  
Pt 5.9612226000 5.8402030000 0.0586586700  
Pt 3.7906184000 3.8563110000 4.0460734000  
Pt 4.0476310000 5.9334000000 6.0001373000  
Pt 5.9634350000 3.9360797000 6.0268630000  
Pt 5.9483710000 5.9288664000 4.1290555000  

