&CONTROL
   calculation      = 'scf'
   restart_mode     = 'from_scratch'
   tprnfor          = .true.
   outdir           = './outdir'
   disk_io          = 'none'
   pseudo_dir       = '/scratch/ch24d003/pseudo'
/
&SYSTEM
   ibrav            = 0
   nat              = 32
   ntyp             = 1
   nbnd             = 346
   ecutwfc          = 70
   ecutrho          = 280
   occupations      = 'smearing'
   degauss          = 0.02
   smearing         = 'marzari-vanderbilt'
   input_dft        = 'PBE'
/
&ELECTRONS
   electron_maxstep = 200
   conv_thr         = 1e-06
   mixing_beta      = 0.1
   mixing_ndim      = 8
   diagonalization  = 'david'
/
&IONS
/
&CELL
/
&FCP
/
&RISM
/
ATOMIC_SPECIES
Pt 195.084 Pt_ONCV_PBE-1.2.upf

K_POINTS automatic
4 4 4  0 0 0

CELL_PARAMETERS angstrom
7.89483400000000 0.00000000000000 0.00000000000000
0.00000000000000 7.87004400000000 0.00000000000000
0.00000000000000 0.00000000000000 8.01469200000000

ATOMIC_POSITIONS angstrom
Pt 0.0565828800 0.1897243400 7.9619484000  
Pt 0.0964121150 1.9259987000 1.9473861000  
Pt 1.9038993000 7.7475600000 2.0313365000  
Pt 1.9209704000 2.0100453000 7.8485546000  
Pt 0.0438409520 0.1598894400 3.9993005000  
Pt 0.0415603260 1.9374500000 5.9000240000  
Pt 1.8578820000 7.7889943000 5.9662113000  
Pt 2.0200124000 2.1602110000 4.0226965000  
Pt 7.8266926000 3.6933750000 7.9508567000  
Pt 0.0590029800 5.7594060000 1.9644078000  
Pt 1.9895996000 3.9975526000 2.0674345000  
Pt 1.9561870000 5.8994117000 0.0726758200  
Pt 0.0039334340 3.9144533000 4.0660970000  
Pt 7.8843646000 5.8427014000 6.1366725000  
Pt 2.0579720000 4.0481696000 5.9867470000  
Pt 1.9572303000 5.9909725000 4.0853790000  
Pt 3.9810867000 7.7676973000 0.2769571000  
Pt 3.7916467000 1.9832578000 1.9572561000  
Pt 6.0278435000 7.7700790000 1.8701518000  
Pt 5.8050303000 1.9923433000 7.7734776000  
Pt 4.0666184000 0.0706106400 3.9268277000  
Pt 3.8187354000 1.7671008000 6.1094503000  
Pt 6.0014877000 7.8493667000 6.0248410000  
Pt 5.8794785000 2.0129006000 3.9292548000  
Pt 3.7747820000 3.9369931000 0.0003364891  
Pt 3.8475670000 5.8640670000 2.1547210000  
Pt 5.9211180000 3.9533465000 2.0805880000  
Pt 5.9756310000 5.8370360000 7.9913000000  
Pt 4.0299260000 4.0343184000 4.1533890000  
Pt 4.0237790000 5.9319650000 6.0523130000  
Pt 6.0380710000 4.0245748000 6.0095897000  
Pt 5.8568530000 5.9136700000 3.9530306000  

