&CONTROL
   calculation      = 'scf'
   restart_mode     = 'from_scratch'
   tprnfor          = .true.
   outdir           = './outdir'
   disk_io          = 'none'
   pseudo_dir       = './../pseudo'
/
&SYSTEM
   ibrav            = 0
   nat              = 32
   ntyp             = 1
   nbnd             = 346
   ecutwfc          = 70
   ecutrho          = 280
   occupations      = 'smearing'
   degauss          = 0.02
   smearing         = 'marzari-vanderbilt'
   input_dft        = 'PBE'
/
&ELECTRONS
   electron_maxstep = 200
   conv_thr         = 1e-06
   mixing_beta      = 0.1
   mixing_ndim      = 8
   diagonalization  = 'david'
/
&IONS
/
&CELL
/
&FCP
/
&RISM
/
ATOMIC_SPECIES
Pt 195.084 Pt_ONCV_PBE-1.2.upf

K_POINTS automatic
4 4 4  0 0 0

CELL_PARAMETERS angstrom
7.95897029563084 0.00000000000000 0.00000000000000
0.00000000000000 8.01047352186246 0.00000000000000
0.00000000000000 0.00000000000000 7.97955243509829

ATOMIC_POSITIONS angstrom
Pt -0.0084543151 -0.0000831941 0.0042629852  
Pt 0.0032603379 1.9972981857 1.9768214893  
Pt 2.0014869535 -0.0030069021 1.9954811151  
Pt 1.9985906630 2.0057943204 0.0028292891  
Pt -0.0059052014 -0.0015004497 3.9713995906  
Pt 0.0030551609 2.0154602322 5.9629144892  
Pt 2.0061132303 -0.0025687939 5.9619292920  
Pt 2.0041569358 1.9970377065 3.9698962441  
Pt -0.0068292614 4.0136649950 -0.0052900403  
Pt 0.0088213832 6.0274384075 1.9885400295  
Pt 1.9942418100 4.0027453695 1.9780496094  
Pt 2.0124398948 6.0209735809 0.0051980601  
Pt -0.0067032163 4.0038624234 3.9697710920  
Pt 0.0074988495 6.0269240656 5.9557404841  
Pt 2.0036157261 4.0215291607 5.9627409196  
Pt 1.9987709889 6.0243809701 3.9744028836  
Pt 4.0101386743 0.0004680754 -0.0028822938  
Pt 3.9978174854 2.0113342175 1.9811181631  
Pt 6.0035785925 0.0079293690 1.9876481254  
Pt 6.0044565773 2.0143948415 -0.0023399702  
Pt 4.0094536394 0.0076697812 3.9708744669  
Pt 4.0125559559 1.9969751253 5.9580414691  
Pt 6.0127551874 0.0076931257 5.9524961921  
Pt 6.0096516164 2.0044768484 3.9738290934  
Pt 4.0009874326 4.0079778043 -0.0039917422  
Pt 4.0137726741 6.0127352343 1.9954105703  
Pt 6.0007263764 4.0057323366 1.9848061938  
Pt 6.0091875102 6.0251101263 -0.0099426500  
Pt 4.0093282542 4.0182711731 3.9658827263  
Pt 4.0019673130 6.0183767343 5.9588119274  
Pt 6.0028693247 4.0182411702 5.9570223296  
Pt 6.0108607676 6.0231931961 3.9637449828  

