&CONTROL
   calculation      = 'scf'
   restart_mode     = 'from_scratch'
   tprnfor          = .true.
   outdir           = './outdir'
   disk_io          = 'none'
   pseudo_dir       = './../pseudo'
/
&SYSTEM
   ibrav            = 0
   nat              = 32
   ntyp             = 1
   nbnd             = 346
   ecutwfc          = 70
   ecutrho          = 280
   occupations      = 'smearing'
   degauss          = 0.02
   smearing         = 'marzari-vanderbilt'
   input_dft        = 'PBE'
/
&ELECTRONS
   electron_maxstep = 200
   conv_thr         = 1e-06
   mixing_beta      = 0.1
   mixing_ndim      = 8
   diagonalization  = 'david'
/
&IONS
/
&CELL
/
&FCP
/
&RISM
/
ATOMIC_SPECIES
Pt 195.084 Pt_ONCV_PBE-1.2.upf

K_POINTS automatic
4 4 4  0 0 0

CELL_PARAMETERS angstrom
7.89135752098795 0.00000000000000 0.00000000000000
0.00000000000000 7.93110514411811 0.00000000000000
0.00000000000000 0.00000000000000 7.98034319641976

ATOMIC_POSITIONS angstrom
Pt -0.0084430141 0.0041988684 0.0014860395  
Pt -0.0055685894 1.9738159794 1.9995354688  
Pt 1.9854728991 -0.0087321399 1.9910012328  
Pt 1.9925669147 1.9736576885 0.0053903794  
Pt -0.0036532008 0.0079929121 3.9912853597  
Pt -0.0031007631 1.9871775038 6.0072241202  
Pt 1.9858667474 -0.0078695245 6.0083430364  
Pt 1.9783452727 1.9742832284 4.0083553951  
Pt -0.0020720426 3.9580205560 -0.0089576535  
Pt -0.0077602373 5.9240354942 2.0028714779  
Pt 1.9743129723 3.9601832651 1.9999150917  
Pt 1.9810410769 5.9365170738 0.0074579597  
Pt 0.0005171694 3.9631150958 4.0001104804  
Pt -0.0074424854 5.9423223394 6.0075979862  
Pt 1.9818318924 3.9622049962 6.0000066799  
Pt 1.9799574657 5.9392817162 3.9915238540  
Pt 3.9610499292 0.0000415292 -0.0043002064  
Pt 3.9589082733 1.9775045094 1.9963442848  
Pt 5.9555223840 0.0001639131 2.0053010703  
Pt 5.9462393561 1.9755206404 0.0048994199  
Pt 3.9716602689 -0.0093078345 4.0021099119  
Pt 3.9620247245 1.9779497590 5.9951520646  
Pt 5.9473958768 0.0085299899 5.9922748415  
Pt 5.9522631990 1.9726284428 3.9961260538  
Pt 3.9604830643 3.9607907500 0.0039129185  
Pt 3.9595423917 5.9242270063 2.0002576804  
Pt 5.9424861765 3.9646759405 1.9994672578  
Pt 5.9396128486 5.9339853456 0.0084956327  
Pt 3.9571517048 3.9567294189 3.9950793601  
Pt 3.9555041502 5.9321818554 5.9966236609  
Pt 5.9480657153 3.9588932326 5.9994008449  
Pt 5.9488378744 5.9404723035 4.0036904326  

