&CONTROL
   calculation      = 'scf'
   restart_mode     = 'from_scratch'
   tprnfor          = .true.
   outdir           = './outdir'
   disk_io          = 'none'
   pseudo_dir       = './../pseudo'
/
&SYSTEM
   ibrav            = 0
   nat              = 32
   ntyp             = 1
   nbnd             = 346
   ecutwfc          = 70
   ecutrho          = 280
   occupations      = 'smearing'
   degauss          = 0.02
   smearing         = 'marzari-vanderbilt'
   input_dft        = 'PBE'
/
&ELECTRONS
   electron_maxstep = 200
   conv_thr         = 1e-06
   mixing_beta      = 0.1
   mixing_ndim      = 8
   diagonalization  = 'david'
/
&IONS
/
&CELL
/
&FCP
/
&RISM
/
ATOMIC_SPECIES
Pt 195.084 Pt_ONCV_PBE-1.2.upf

K_POINTS automatic
4 4 4  0 0 0

CELL_PARAMETERS angstrom
8.02393970382493 0.00000000000000 0.00000000000000
0.00000000000000 7.94592393303447 0.00000000000000
0.00000000000000 0.00000000000000 7.93274978565195

ATOMIC_POSITIONS angstrom
Pt -0.0015423462 0.0017623592 0.0094241754  
Pt -0.0065031190 1.9654760752 2.0057264460  
Pt 1.9955666636 -0.0020640741 2.0022898439  
Pt 2.0099598844 1.9713458367 -0.0009048041  
Pt 0.0050868701 0.0003991517 3.9903638263  
Pt 0.0035793636 1.9650281959 5.9945549141  
Pt 2.0006737713 0.0039014120 6.0001754637  
Pt 1.9997010862 1.9673465795 4.0025223643  
Pt -0.0044042201 3.9471209114 -0.0090905481  
Pt 0.0062227441 5.9232898641 2.0058964888  
Pt 2.0076763163 3.9363033892 2.0008213289  
Pt 2.0044307311 5.9213712521 -0.0013184074  
Pt 0.0074432583 3.9422453657 4.0077503083  
Pt 0.0000675508 5.9138922030 6.0058534163  
Pt 2.0092078481 3.9456558507 6.0053572314  
Pt 2.0075728623 5.9094946776 4.0017869602  
Pt 4.0126904157 0.0074657512 0.0058921442  
Pt 4.0121893536 1.9667126893 1.9944840505  
Pt 6.0092356160 -0.0062120214 1.9996605462  
Pt 6.0027102438 1.9771441495 -0.0051117156  
Pt 4.0088614504 0.0070994569 4.0068761875  
Pt 4.0083041260 1.9752471464 5.9996748665  
Pt 6.0181096162 0.0018685383 6.0049092030  
Pt 6.0178897455 1.9764802455 3.9959924959  
Pt 4.0072113152 3.9512850635 0.0037999195  
Pt 3.9973386574 5.9206004221 1.9907695552  
Pt 6.0157500538 3.9535565266 2.0034719396  
Pt 6.0093037360 5.9089120860 0.0044655173  
Pt 4.0037360034 3.9388416641 3.9892790731  
Pt 4.0152897720 5.9108726287 6.0083441734  
Pt 6.0118755278 3.9509624905 5.9949147972  
Pt 6.0107213670 5.9086012016 4.0033046139  

