&CONTROL
   calculation      = 'scf'
   restart_mode     = 'from_scratch'
   tprnfor          = .true.
   outdir           = './outdir'
   disk_io          = 'none'
   pseudo_dir       = '/scratch/ch24d003/pseudo'
/
&SYSTEM
   ibrav            = 0
   nat              = 32
   ntyp             = 1
   nbnd             = 346
   ecutwfc          = 70
   ecutrho          = 280
   occupations      = 'smearing'
   degauss          = 0.02
   smearing         = 'marzari-vanderbilt'
   input_dft        = 'PBE'
/
&ELECTRONS
   electron_maxstep = 200
   conv_thr         = 1e-06
   mixing_beta      = 0.1
   mixing_ndim      = 8
   diagonalization  = 'david'
/
&IONS
/
&CELL
/
&FCP
/
&RISM
/
ATOMIC_SPECIES
Pt 195.084 Pt_ONCV_PBE-1.2.upf

K_POINTS automatic
4 4 4  0 0 0

CELL_PARAMETERS angstrom
7.89483400000000 0.00000000000000 0.00000000000000
0.00000000000000 7.87004400000000 0.00000000000000
0.00000000000000 0.00000000000000 8.01469200000000

ATOMIC_POSITIONS angstrom
Pt 0.0129435480 7.8330600000 7.9464064000  
Pt 7.8044424000 1.9608155000 2.0243216000  
Pt 2.0940576000 7.8449683000 2.0394285000  
Pt 2.0005800000 2.0451217000 0.0261201360  
Pt 0.1272336800 0.0421706620 3.9719360000  
Pt 7.7954860000 1.8965783000 5.9300447000  
Pt 1.9228870000 0.0924609150 6.1510663000  
Pt 2.0674320000 2.0592675000 4.0560427000  
Pt 0.0138295980 3.8560524000 7.9100370000  
Pt 7.8839890000 5.8967910000 1.9953930000  
Pt 1.9507407000 3.7948632000 2.1207728000  
Pt 1.9405460000 5.8734612000 8.0099580000  
Pt 7.8427343000 3.9046376000 4.0050206000  
Pt 0.0046090660 5.9186310000 6.0251220000  
Pt 1.8762907000 3.9363294000 6.0848180000  
Pt 2.1000109000 5.8456874000 3.9545710000  
Pt 3.8548322000 0.0204423130 7.9992290000  
Pt 3.8928192000 1.8796129000 2.0053508000  
Pt 6.0142236000 7.8151630000 1.8722850000  
Pt 5.7653570000 1.9976776000 0.0867473400  
Pt 3.9104400000 0.1205964000 3.9352508000  
Pt 4.0845060000 1.9117147000 6.0271926000  
Pt 5.8690290000 7.7291830000 6.0878916000  
Pt 5.8092270000 1.9395267000 3.9937348000  
Pt 3.8582664000 3.9664278000 0.0534912500  
Pt 4.0160227000 5.8629850000 2.0275528000  
Pt 5.9595838000 3.9637587000 1.9276791000  
Pt 5.8157010000 5.8260303000 0.0379588750  
Pt 4.1566877000 4.0090337000 3.9504476000  
Pt 3.9101412000 5.9437284000 5.9464610000  
Pt 5.9118220000 3.9674726000 6.0736604000  
Pt 6.0389930000 6.1509504000 3.9805276000  

