&CONTROL
   calculation      = 'scf'
   restart_mode     = 'from_scratch'
   tprnfor          = .true.
   outdir           = './outdir'
   disk_io          = 'none'
   pseudo_dir       = './../pseudo'
/
&SYSTEM
   ibrav            = 0
   nat              = 32
   ntyp             = 1
   nbnd             = 346
   ecutwfc          = 70
   ecutrho          = 280
   occupations      = 'smearing'
   degauss          = 0.02
   smearing         = 'marzari-vanderbilt'
   input_dft        = 'PBE'
/
&ELECTRONS
   electron_maxstep = 200
   conv_thr         = 1e-06
   mixing_beta      = 0.1
   mixing_ndim      = 8
   diagonalization  = 'david'
/
&IONS
/
&CELL
/
&FCP
/
&RISM
/
ATOMIC_SPECIES
Pt 195.084 Pt_ONCV_PBE-1.2.upf

K_POINTS automatic
4 4 4  0 0 0

CELL_PARAMETERS angstrom
8.00516664491444 0.00000000000000 0.00000000000000
0.00000000000000 7.97986825862601 0.00000000000000
0.00000000000000 0.00000000000000 7.89821197719542

ATOMIC_POSITIONS angstrom
Pt 0.0014152649 -0.0089993524 0.0021609096  
Pt -0.0085756422 2.0142918156 1.9513687639  
Pt 1.9780466035 -0.0074884810 1.9667726122  
Pt 1.9788078392 2.0131715565 -0.0080244919  
Pt -0.0016990499 -0.0003893574 3.9248154724  
Pt -0.0011910131 2.0114465208 5.8830012004  
Pt 1.9860751613 0.0098740113 5.8819730739  
Pt 1.9792420365 2.0061937230 3.9092363844  
Pt 0.0092660648 4.0052108441 0.0072004904  
Pt -0.0073232107 6.0199505849 1.9525561660  
Pt 1.9831158042 4.0066986742 1.9610432634  
Pt 1.9921349905 6.0082423924 0.0029921228  
Pt 0.0023482286 4.0060410220 3.9077028288  
Pt -0.0037408172 6.0272160289 5.8680129961  
Pt 1.9805126773 4.0034581830 5.8685473095  
Pt 1.9924957697 6.0155878839 3.9064234836  
Pt 3.9682782479 -0.0066449465 -0.0072332096  
Pt 3.9684022821 2.0092616102 1.9606116557  
Pt 5.9520226092 0.0098693789 1.9526864128  
Pt 5.9452529306 1.9961789502 -0.0022342765  
Pt 3.9776034189 0.0008624539 3.9073441812  
Pt 3.9766581013 2.0048899106 5.8822791251  
Pt 5.9581495658 -0.0016431156 5.8657359524  
Pt 5.9552708141 2.0095156039 3.9103175174  
Pt 3.9719135402 4.0216905828 0.0083605125  
Pt 3.9626459416 6.0260609972 1.9610796385  
Pt 5.9500698937 4.0210888443 1.9628880882  
Pt 5.9545854531 6.0168834951 0.0068189829  
Pt 3.9772452992 4.0080907824 3.9158628420  
Pt 3.9670088972 6.0090646209 5.8690180372  
Pt 5.9450720592 4.0189408435 5.8650810584  
Pt 5.9533050854 6.0152928113 3.9103502177  

