&CONTROL
   calculation      = 'scf'
   restart_mode     = 'from_scratch'
   tprnfor          = .true.
   outdir           = './outdir'
   disk_io          = 'none'
   pseudo_dir       = '/scratch/ch24d003/pseudo'
/
&SYSTEM
   ibrav            = 0
   nat              = 32
   ntyp             = 1
   nbnd             = 346
   ecutwfc          = 70
   ecutrho          = 280
   occupations      = 'smearing'
   degauss          = 0.02
   smearing         = 'marzari-vanderbilt'
   input_dft        = 'PBE'
/
&ELECTRONS
   electron_maxstep = 200
   conv_thr         = 1e-06
   mixing_beta      = 0.1
   mixing_ndim      = 8
   diagonalization  = 'david'
/
&IONS
/
&CELL
/
&FCP
/
&RISM
/
ATOMIC_SPECIES
Pt 195.084 Pt_ONCV_PBE-1.2.upf

K_POINTS automatic
4 4 4  0 0 0

CELL_PARAMETERS angstrom
7.89483400000000 0.00000000000000 0.00000000000000
0.00000000000000 7.87004400000000 0.00000000000000
0.00000000000000 0.00000000000000 8.01469200000000

ATOMIC_POSITIONS angstrom
Pt 0.0236036400 7.8489013000 7.9897313000  
Pt 0.1664095200 2.0636797000 1.9603266000  
Pt 1.8107010000 7.7062798000 2.0500188000  
Pt 2.0050683000 1.9336925000 7.8899640000  
Pt 7.7810783000 0.0974539800 3.9865196000  
Pt 0.0410201030 2.0513597000 5.9556120000  
Pt 2.1206949000 0.0436552840 5.9599800000  
Pt 2.0344648000 1.9094994000 3.9895408000  
Pt 0.0135709600 3.8881373000 7.8957490000  
Pt 7.7780730000 5.7960896000 1.8997471000  
Pt 1.8690059000 3.7856169000 1.9900780000  
Pt 2.0210478000 5.8829290000 7.9954596000  
Pt 0.0258678420 3.7884548000 4.0157337000  
Pt 7.8453765000 5.9082327000 6.0669823000  
Pt 2.1332853000 4.0356913000 5.8354936000  
Pt 1.8426367000 5.8998284000 4.0352316000  
Pt 3.8828542000 0.1557628000 0.1235457700  
Pt 3.9191940000 1.9412745000 2.0543938000  
Pt 5.9168987000 0.0949221700 2.0491750000  
Pt 6.1359334000 1.9398217000 0.0185768620  
Pt 3.9285730000 7.7761436000 4.0614433000  
Pt 4.0381265000 1.9137046000 6.1850533000  
Pt 6.0005200000 0.0865204000 6.1667123000  
Pt 5.8319600000 1.9668916000 3.9361510000  
Pt 3.8638394000 3.8742876000 0.0562245600  
Pt 3.7808766000 5.9309600000 2.0877576000  
Pt 5.8398867000 3.8444288000 1.8571948000  
Pt 5.8721213000 5.9815020000 0.0296959770  
Pt 4.0490130000 4.0044760000 4.0476410000  
Pt 3.9781785000 5.9866104000 6.1424074000  
Pt 5.8727255000 4.1071810000 6.0150160000  
Pt 5.9880240000 5.7911670000 3.9093626000  

