&CONTROL
   calculation      = 'scf'
   restart_mode     = 'from_scratch'
   tprnfor          = .true.
   outdir           = './outdir'
   disk_io          = 'none'
   pseudo_dir       = '/scratch/ch24d003/pseudo'
/
&SYSTEM
   ibrav            = 0
   nat              = 32
   ntyp             = 1
   nbnd             = 346
   ecutwfc          = 70
   ecutrho          = 280
   occupations      = 'smearing'
   degauss          = 0.02
   smearing         = 'marzari-vanderbilt'
   input_dft        = 'PBE'
/
&ELECTRONS
   electron_maxstep = 200
   conv_thr         = 1e-06
   mixing_beta      = 0.1
   mixing_ndim      = 8
   diagonalization  = 'david'
/
&IONS
/
&CELL
/
&FCP
/
&RISM
/
ATOMIC_SPECIES
Pt 195.084 Pt_ONCV_PBE-1.2.upf

K_POINTS automatic
4 4 4  0 0 0

CELL_PARAMETERS angstrom
7.89483400000000 0.00000000000000 0.00000000000000
0.00000000000000 7.87004400000000 0.00000000000000
0.00000000000000 0.00000000000000 8.01469200000000

ATOMIC_POSITIONS angstrom
Pt 0.0299536180 7.7823763000 0.0583952900  
Pt 0.1072681200 1.9946628000 1.9476887000  
Pt 2.0805185000 7.8591900000 1.9586517000  
Pt 1.9933156000 1.8804102000 8.0021870000  
Pt 0.0333136900 7.7336780000 3.8730588000  
Pt 0.0592174300 2.0010815000 6.1374984000  
Pt 1.8769481000 7.8650560000 5.9291010000  
Pt 1.8640946000 1.9808803000 4.0421020000  
Pt 7.8241990000 3.9732237000 7.9977090000  
Pt 0.0339083260 5.9005947000 1.9490697000  
Pt 2.0267186000 3.9173422000 2.0639439000  
Pt 1.9375453000 5.8419590000 0.0381721150  
Pt 7.8327430000 4.0777235000 4.0328620000  
Pt 7.8624153000 5.8143935000 5.9950886000  
Pt 1.9423180000 4.0188437000 6.0362554000  
Pt 1.9640362000 5.9413280000 3.9988601000  
Pt 4.0355050000 0.0736265200 7.9467790000  
Pt 3.9043630000 1.9344004000 2.0507605000  
Pt 5.9109735000 7.8540597000 1.9905804000  
Pt 5.9560866000 1.9392508000 7.9664264000  
Pt 3.9322420000 0.0138498930 4.0323124000  
Pt 3.9048480000 1.9079831000 5.9846067000  
Pt 6.0545400000 0.0260092150 6.0777464000  
Pt 5.9341183000 1.9549603000 4.0297550000  
Pt 3.9874140000 3.8992581000 0.0778786100  
Pt 3.8773222000 5.8897057000 1.9721843000  
Pt 5.8969836000 3.9454050000 2.0347502000  
Pt 5.8745170000 5.8822694000 0.0216184740  
Pt 3.9710772000 3.9503298000 4.0019150000  
Pt 3.9532520000 6.0265136000 6.0283790000  
Pt 5.8926897000 3.9037793000 5.9377840000  
Pt 5.8561840000 5.9911003000 4.0423994000  

