&CONTROL
   calculation      = 'scf'
   restart_mode     = 'from_scratch'
   tprnfor          = .true.
   outdir           = './outdir'
   disk_io          = 'none'
   pseudo_dir       = './../pseudo'
/
&SYSTEM
   ibrav            = 0
   nat              = 32
   ntyp             = 1
   nbnd             = 346
   ecutwfc          = 70
   ecutrho          = 280
   occupations      = 'smearing'
   degauss          = 0.02
   smearing         = 'marzari-vanderbilt'
   input_dft        = 'PBE'
/
&ELECTRONS
   electron_maxstep = 200
   conv_thr         = 1e-06
   mixing_beta      = 0.1
   mixing_ndim      = 8
   diagonalization  = 'david'
/
&IONS
/
&CELL
/
&FCP
/
&RISM
/
ATOMIC_SPECIES
Pt 195.084 Pt_ONCV_PBE-1.2.upf

K_POINTS automatic
4 4 4  0 0 0

CELL_PARAMETERS angstrom
7.94114170848848 0.00000000000000 0.00000000000000
0.00000000000000 7.90979056842428 0.00000000000000
0.00000000000000 0.00000000000000 8.02034759691433

ATOMIC_POSITIONS angstrom
Pt -0.0099579048 0.0087158396 -0.0006141216  
Pt 0.0022852746 1.9934192473 2.0169071697  
Pt 1.9855616364 -0.0080011506 2.0195980907  
Pt 1.9912817895 1.9905859945 0.0075909436  
Pt 0.0054618563 0.0095010041 4.0127580322  
Pt 0.0006642030 1.9970828612 6.0361895932  
Pt 1.9803958947 0.0083734873 6.0298265237  
Pt 1.9940984015 1.9881775334 4.0245104315  
Pt -0.0019763582 3.9973031310 -0.0029106652  
Pt -0.0047452555 5.9983422236 2.0128784190  
Pt 1.9968210634 3.9917091637 2.0066790721  
Pt 1.9928890075 5.9993484433 0.0091770400  
Pt 0.0025577873 3.9881204593 4.0192261522  
Pt 0.0053297669 5.9853101915 6.0387374949  
Pt 1.9966352635 3.9938759835 6.0337691546  
Pt 1.9849168757 5.9962000811 4.0240818793  
Pt 3.9848553220 0.0080517476 -0.0042966505  
Pt 3.9703160269 2.0028123814 2.0141110288  
Pt 5.9683721901 0.0047264649 2.0199873474  
Pt 5.9680167137 2.0046283898 -0.0037098714  
Pt 3.9780537416 0.0089092900 4.0253455205  
Pt 3.9829619750 1.9917378138 6.0385963517  
Pt 5.9760698595 0.0095447872 6.0293449325  
Pt 5.9683277276 1.9957470037 4.0297184365  
Pt 3.9733514578 3.9856678012 0.0082038614  
Pt 3.9880816699 5.9904032506 2.0175047902  
Pt 5.9650641646 4.0030908368 2.0201706961  
Pt 5.9667126732 5.9896258680 0.0025581688  
Pt 3.9709006515 3.9950804236 4.0255306848  
Pt 3.9865398249 5.9832876811 6.0347442676  
Pt 5.9592509411 3.9883947142 6.0405825983  
Pt 5.9669822549 5.9868184244 4.0283813723  

