&CONTROL
   calculation      = 'scf'
   restart_mode     = 'from_scratch'
   tprnfor          = .true.
   outdir           = './outdir'
   disk_io          = 'none'
   pseudo_dir       = './../pseudo'
/
&SYSTEM
   ibrav            = 0
   nat              = 32
   ntyp             = 1
   nbnd             = 346
   ecutwfc          = 70
   ecutrho          = 280
   occupations      = 'smearing'
   degauss          = 0.02
   smearing         = 'marzari-vanderbilt'
   input_dft        = 'PBE'
/
&ELECTRONS
   electron_maxstep = 200
   conv_thr         = 1e-06
   mixing_beta      = 0.1
   mixing_ndim      = 8
   diagonalization  = 'david'
/
&IONS
/
&CELL
/
&FCP
/
&RISM
/
ATOMIC_SPECIES
Pt 195.084 Pt_ONCV_PBE-1.2.upf

K_POINTS automatic
4 4 4  0 0 0

CELL_PARAMETERS angstrom
7.87585023041232 0.00000000000000 0.00000000000000
0.00000000000000 7.89507231965481 0.00000000000000
0.00000000000000 0.00000000000000 7.93180128025866

ATOMIC_POSITIONS angstrom
Pt 0.0000335976 -0.0046893456 -0.0089173248  
Pt 0.0098776739 1.9920281745 1.9874542828  
Pt 1.9678703474 0.0055703624 1.9917845557  
Pt 1.9566629642 1.9837373859 0.0065811231  
Pt -0.0036207352 0.0068988572 3.9784059238  
Pt 0.0078400464 1.9825078617 5.9681123663  
Pt 1.9629403079 -0.0000016814 5.9669124635  
Pt 1.9671254510 1.9786995460 3.9753756615  
Pt 0.0078673344 3.9700318794 -0.0083675597  
Pt -0.0023999777 5.9619423983 1.9800863596  
Pt 1.9639689298 3.9748807412 1.9860304790  
Pt 1.9642478202 5.9588357505 0.0037463447  
Pt -0.0035099343 3.9684984871 3.9742728237  
Pt 0.0016749739 5.9604809942 5.9581470881  
Pt 1.9634670142 3.9693079487 5.9529191256  
Pt 1.9731087356 5.9491702651 3.9819119158  
Pt 3.9207844938 -0.0082389049 -0.0013016775  
Pt 3.9339901173 1.9829715852 1.9880429173  
Pt 5.8904022561 -0.0030431869 1.9918796290  
Pt 5.8885736622 1.9892022196 0.0098741898  
Pt 3.9338091664 -0.0055312757 3.9663196781  
Pt 3.9369588468 1.9915190399 5.9649186621  
Pt 5.8951687366 0.0058481690 5.9523451096  
Pt 5.8999396600 1.9911110549 3.9784773142  
Pt 3.9355784340 3.9809751707 -0.0068226324  
Pt 3.9228140519 5.9528396283 1.9901265800  
Pt 5.9021850532 3.9637378754 1.9764709241  
Pt 5.8828223681 5.9482477604 0.0097217437  
Pt 3.9197926364 3.9636769904 3.9659882906  
Pt 3.9380986040 5.9614344351 5.9596745735  
Pt 5.8892141117 3.9764772326 5.9625604981  
Pt 5.8930973888 5.9495064534 3.9672120694  

