&CONTROL
   calculation      = 'scf'
   restart_mode     = 'from_scratch'
   tprnfor          = .true.
   outdir           = './outdir'
   disk_io          = 'none'
   pseudo_dir       = './../pseudo'
/
&SYSTEM
   ibrav            = 0
   nat              = 32
   ntyp             = 1
   nbnd             = 346
   ecutwfc          = 70
   ecutrho          = 280
   occupations      = 'smearing'
   degauss          = 0.02
   smearing         = 'marzari-vanderbilt'
   input_dft        = 'PBE'
/
&ELECTRONS
   electron_maxstep = 200
   conv_thr         = 1e-06
   mixing_beta      = 0.1
   mixing_ndim      = 8
   diagonalization  = 'david'
/
&IONS
/
&CELL
/
&FCP
/
&RISM
/
ATOMIC_SPECIES
Pt 195.084 Pt_ONCV_PBE-1.2.upf

K_POINTS automatic
4 4 4  0 0 0

CELL_PARAMETERS angstrom
7.94122150882561 0.00000000000000 0.00000000000000
0.00000000000000 7.97719437399726 0.00000000000000
0.00000000000000 0.00000000000000 7.94922827602053

ATOMIC_POSITIONS angstrom
Pt 0.0093576214 0.0040204998 -0.0044661002  
Pt 0.0050024705 1.9950658974 1.9854574306  
Pt 1.9763179877 0.0064292864 1.9909531778  
Pt 1.9791368958 2.0008469614 0.0055022174  
Pt -0.0074135917 0.0015550459 3.9760920220  
Pt 0.0039781113 2.0044277975 5.9607630585  
Pt 1.9754869580 0.0098094084 5.9652390139  
Pt 1.9820413183 2.0012181263 3.9716792599  
Pt -0.0055011011 4.0033817745 0.0033720772  
Pt -0.0053294647 6.0041674622 1.9786025482  
Pt 1.9871165062 4.0032420122 1.9824238269  
Pt 1.9871793586 5.9938826264 -0.0031011360  
Pt -0.0079456724 4.0062464682 3.9793411653  
Pt 0.0003396318 5.9975505621 5.9486905088  
Pt 1.9763375865 4.0035730390 5.9589109031  
Pt 1.9749567624 6.0015291002 3.9791463437  
Pt 3.9647279508 0.0098304254 0.0041025433  
Pt 3.9688318918 2.0040491739 1.9875557583  
Pt 5.9531680210 0.0084845086 1.9754014334  
Pt 5.9502366092 1.9964500147 0.0010472222  
Pt 3.9572167352 -0.0028094631 3.9634225411  
Pt 3.9622998322 1.9955251958 5.9525936984  
Pt 5.9403271906 -0.0042264519 5.9649793262  
Pt 5.9422646335 2.0013417762 3.9669397423  
Pt 3.9749537440 3.9993210513 0.0033964225  
Pt 3.9754038415 5.9985820393 1.9771386634  
Pt 5.9463368855 3.9972229221 1.9825084961  
Pt 5.9547521346 5.9939179833 0.0010015874  
Pt 3.9607867692 4.0101174222 3.9719396346  
Pt 3.9657637751 6.0053454771 5.9601711077  
Pt 5.9572112619 4.0083183333 5.9479778477  
Pt 5.9492329196 6.0036658437 3.9608011921  

