&CONTROL
   calculation      = 'scf'
   restart_mode     = 'from_scratch'
   tprnfor          = .true.
   outdir           = './outdir'
   disk_io          = 'none'
   pseudo_dir       = '/scratch/ch24d003/pseudo'
/
&SYSTEM
   ibrav            = 0
   nat              = 32
   ntyp             = 1
   nbnd             = 346
   ecutwfc          = 70
   ecutrho          = 280
   occupations      = 'smearing'
   degauss          = 0.02
   smearing         = 'marzari-vanderbilt'
   input_dft        = 'PBE'
/
&ELECTRONS
   electron_maxstep = 200
   conv_thr         = 1e-06
   mixing_beta      = 0.1
   mixing_ndim      = 8
   diagonalization  = 'david'
/
&IONS
/
&CELL
/
&FCP
/
&RISM
/
ATOMIC_SPECIES
Pt 195.084 Pt_ONCV_PBE-1.2.upf

K_POINTS automatic
4 4 4  0 0 0

CELL_PARAMETERS angstrom
7.89483400000000 0.00000000000000 0.00000000000000
0.00000000000000 7.87004400000000 0.00000000000000
0.00000000000000 0.00000000000000 8.01469200000000

ATOMIC_POSITIONS angstrom
Pt 0.0903593600 7.7495850000 7.9514110000  
Pt 0.0162439090 1.8560708000 1.9875292000  
Pt 1.9982003000 0.0277306400 1.9937397000  
Pt 1.9446514000 1.8930185000 7.9700250000  
Pt 7.7779217000 0.1284467600 3.9838483000  
Pt 7.8493310000 1.9989722000 6.0677590000  
Pt 1.9987847000 0.0526742970 5.9591856000  
Pt 1.9364300000 1.9395546000 4.0340300000  
Pt 0.0348392400 4.0055194000 0.0054711048  
Pt 0.0089441970 5.8979983000 2.0185237000  
Pt 1.9978644000 3.9241595000 1.9909210000  
Pt 2.0921460000 5.8659616000 0.0604330340  
Pt 0.0257034380 3.9706242000 4.1074440000  
Pt 7.8357610000 5.9495287000 5.9418580000  
Pt 1.9470054000 3.9664890000 6.0541234000  
Pt 2.0138812000 5.9466460000 3.9576385000  
Pt 3.9207299000 7.7773075000 0.0354417100  
Pt 3.9648225000 1.9516664000 1.9403569000  
Pt 5.9185395000 7.8382497000 1.9016616000  
Pt 5.8617740000 1.9289447000 7.9226150000  
Pt 3.9227722000 0.0713384000 4.1483540000  
Pt 3.8553690000 2.0062760000 6.0925255000  
Pt 5.8038793000 7.8172390000 6.0407233000  
Pt 5.8871274000 2.0918195000 3.9585888000  
Pt 3.9745183000 3.9182348000 0.0988551900  
Pt 4.0450087000 5.9214625000 2.0126898000  
Pt 6.0509430000 3.8874393000 2.0330741000  
Pt 6.0288880000 5.9047465000 0.0660642460  
Pt 3.8573897000 3.8976407000 3.9919567000  
Pt 3.9102645000 5.8295383000 6.0387983000  
Pt 5.9335800000 3.8945603000 5.9986525000  
Pt 5.9069576000 5.9957566000 3.8775284000  

