&CONTROL
   calculation      = 'scf'
   restart_mode     = 'from_scratch'
   tprnfor          = .true.
   outdir           = './outdir'
   disk_io          = 'none'
   pseudo_dir       = './../pseudo'
/
&SYSTEM
   ibrav            = 0
   nat              = 32
   ntyp             = 1
   nbnd             = 346
   ecutwfc          = 70
   ecutrho          = 280
   occupations      = 'smearing'
   degauss          = 0.02
   smearing         = 'marzari-vanderbilt'
   input_dft        = 'PBE'
/
&ELECTRONS
   electron_maxstep = 200
   conv_thr         = 1e-06
   mixing_beta      = 0.1
   mixing_ndim      = 8
   diagonalization  = 'david'
/
&IONS
/
&CELL
/
&FCP
/
&RISM
/
ATOMIC_SPECIES
Pt 195.084 Pt_ONCV_PBE-1.2.upf

K_POINTS automatic
4 4 4  0 0 0

CELL_PARAMETERS angstrom
7.95328345925127 0.00000000000000 0.00000000000000
0.00000000000000 7.91835303503026 0.00000000000000
0.00000000000000 0.00000000000000 7.95335845274223

ATOMIC_POSITIONS angstrom
Pt -0.0035637336 -0.0089527919 0.0038266361  
Pt -0.0075940217 1.9640569668 1.9619779171  
Pt 1.9823351292 0.0036242053 1.9747604965  
Pt 1.9905116821 1.9650307702 0.0063683599  
Pt 0.0051510837 0.0013407100 3.9322338279  
Pt -0.0020045964 1.9618560631 5.9071238751  
Pt 1.9895944283 -0.0030801908 5.9056436224  
Pt 1.9779884635 1.9734586696 3.9402240933  
Pt 0.0052639682 3.9339494038 0.0060108574  
Pt -0.0091263483 5.9036137079 1.9776773073  
Pt 1.9860263095 3.9412485870 1.9748928126  
Pt 1.9864816391 5.8901443560 0.0024534456  
Pt -0.0022022149 3.9369215743 3.9321499612  
Pt 0.0084902498 5.8891188419 5.9071803987  
Pt 1.9777779841 3.9330457374 5.9077960552  
Pt 1.9828166098 5.9047580057 3.9420987927  
Pt 3.9741198412 0.0081667282 -0.0065390078  
Pt 3.9677497194 1.9753214726 1.9666491424  
Pt 5.9515668951 -0.0057296854 1.9613601612  
Pt 5.9515550075 1.9560585624 -0.0061841428  
Pt 3.9671991611 0.0048812891 3.9332048096  
Pt 3.9630352179 1.9704258185 5.9161204407  
Pt 5.9584042171 -0.0056719865 5.9053623406  
Pt 5.9610470704 1.9691242587 3.9321294936  
Pt 3.9763567716 3.9262089681 -0.0062557529  
Pt 3.9718568355 5.9007752804 1.9729800982  
Pt 5.9531120066 3.9369533091 1.9638795444  
Pt 5.9454541757 5.9055152476 -0.0048996983  
Pt 3.9723818697 3.9327307819 3.9404084255  
Pt 3.9687270302 5.9024569610 5.9134818542  
Pt 5.9524989097 3.9281688061 5.9175157871  
Pt 5.9620942342 5.8914646678 3.9396162805  

