&CONTROL
   calculation      = 'scf'
   restart_mode     = 'from_scratch'
   tprnfor          = .true.
   outdir           = './outdir'
   disk_io          = 'none'
   pseudo_dir       = './../pseudo'
/
&SYSTEM
   ibrav            = 0
   nat              = 32
   ntyp             = 1
   nbnd             = 346
   ecutwfc          = 70
   ecutrho          = 280
   occupations      = 'smearing'
   degauss          = 0.02
   smearing         = 'marzari-vanderbilt'
   input_dft        = 'PBE'
/
&ELECTRONS
   electron_maxstep = 200
   conv_thr         = 1e-06
   mixing_beta      = 0.1
   mixing_ndim      = 8
   diagonalization  = 'david'
/
&IONS
/
&CELL
/
&FCP
/
&RISM
/
ATOMIC_SPECIES
Pt 195.084 Pt_ONCV_PBE-1.2.upf

K_POINTS automatic
4 4 4  0 0 0

CELL_PARAMETERS angstrom
7.88300147294092 0.00000000000000 0.00000000000000
0.00000000000000 7.97009155681564 0.00000000000000
0.00000000000000 0.00000000000000 7.95066865062701

ATOMIC_POSITIONS angstrom
Pt -0.0072471549 0.0066745409 -0.0003883484  
Pt 0.0066546375 1.9880028354 1.9980948154  
Pt 1.9777290215 0.0026572037 2.0098614132  
Pt 1.9700727471 1.9740153677 0.0054165156  
Pt 0.0096600615 0.0073393057 3.9963261961  
Pt -0.0035828903 1.9738456501 6.0069014012  
Pt 1.9703267486 -0.0071657743 6.0105117376  
Pt 1.9652843424 1.9733121493 4.0073383723  
Pt -0.0005318662 3.9608976404 -0.0003025701  
Pt -0.0083052048 5.9416177818 2.0067458061  
Pt 1.9677577366 3.9608290932 1.9955211115  
Pt 1.9725721708 5.9419479842 -0.0066698302  
Pt -0.0088425392 3.9569399395 4.0108749632  
Pt 0.0059250740 5.9455799761 6.0126590523  
Pt 1.9698470955 3.9538905959 6.0024861638  
Pt 1.9833002988 5.9410161014 3.9940622038  
Pt 3.9438548418 0.0031590249 0.0062283485  
Pt 3.9431973012 1.9893213898 2.0074356560  
Pt 5.9225015809 0.0095972959 2.0114274340  
Pt 5.9314551725 1.9798986838 0.0052808465  
Pt 3.9424599421 0.0057962412 3.9994397087  
Pt 3.9417896142 1.9800358757 6.0023062337  
Pt 5.9321313974 0.0006508802 6.0083623563  
Pt 5.9327921843 1.9713216487 4.0116696482  
Pt 3.9566344220 3.9536584536 -0.0028471473  
Pt 3.9460888222 5.9479466082 2.0006447785  
Pt 5.9181593367 3.9674281491 1.9957773692  
Pt 5.9209498307 5.9437941923 0.0069514395  
Pt 3.9589462358 3.9643536677 3.9949430102  
Pt 3.9545619181 5.9364015474 6.0121729258  
Pt 5.9305549004 3.9635819241 6.0123175455  
Pt 5.9167763668 5.9369331289 4.0113979692  

