&CONTROL
   calculation      = 'scf'
   restart_mode     = 'from_scratch'
   tprnfor          = .true.
   outdir           = './outdir'
   disk_io          = 'none'
   pseudo_dir       = './../pseudo'
/
&SYSTEM
   ibrav            = 0
   nat              = 32
   ntyp             = 1
   nbnd             = 346
   ecutwfc          = 70
   ecutrho          = 280
   occupations      = 'smearing'
   degauss          = 0.02
   smearing         = 'marzari-vanderbilt'
   input_dft        = 'PBE'
/
&ELECTRONS
   electron_maxstep = 200
   conv_thr         = 1e-06
   mixing_beta      = 0.1
   mixing_ndim      = 8
   diagonalization  = 'david'
/
&IONS
/
&CELL
/
&FCP
/
&RISM
/
ATOMIC_SPECIES
Pt 195.084 Pt_ONCV_PBE-1.2.upf

K_POINTS automatic
4 4 4  0 0 0

CELL_PARAMETERS angstrom
8.01298375958751 0.00000000000000 0.00000000000000
0.00000000000000 7.88691089263171 0.00000000000000
0.00000000000000 0.00000000000000 7.86800229349430

ATOMIC_POSITIONS angstrom
Pt -0.0033782784 -0.0023611658 -0.0094233097  
Pt -0.0093753012 1.9596947912 1.9689875100  
Pt 2.0067746946 -0.0037844745 1.9634825516  
Pt 2.0059557259 1.9621240505 0.0072121543  
Pt -0.0035287193 -0.0079547268 3.9496389465  
Pt 0.0087064080 1.9496598597 5.9165324521  
Pt 2.0119899702 -0.0075033848 5.9153786604  
Pt 2.0004049505 1.9565996411 3.9485093028  
Pt -0.0099841659 3.9206781713 0.0030716676  
Pt -0.0040227982 5.8746953863 1.9630841421  
Pt 1.9938334575 3.9169517718 1.9668027013  
Pt 1.9932608337 5.8830633416 -0.0035224342  
Pt -0.0019477748 3.9188397980 3.9375907888  
Pt 0.0080968440 5.8698945929 5.9026343906  
Pt 2.0103397474 3.9253188229 5.9011874731  
Pt 2.0005254081 5.8793177318 3.9370056996  
Pt 4.0029419014 -0.0048733758 0.0058757056  
Pt 4.0119398574 1.9553172842 1.9764947169  
Pt 6.0178969683 0.0090811707 1.9796947665  
Pt 6.0166553744 1.9661700060 0.0052819745  
Pt 4.0083760097 0.0000083967 3.9415778491  
Pt 3.9966049511 1.9669873066 5.9134318703  
Pt 6.0029899605 0.0035771297 5.9192423060  
Pt 6.0130671671 1.9622151487 3.9462111837  
Pt 4.0127952068 3.9075523755 0.0095504266  
Pt 4.0030372282 5.8759670553 1.9625669409  
Pt 6.0023890567 3.9103555292 1.9663264876  
Pt 6.0137545882 5.8801062703 0.0095689774  
Pt 4.0128600659 3.9121242059 3.9341323149  
Pt 4.0131389972 5.8655823963 5.9046844344  
Pt 6.0077084656 3.9093118838 5.9144327653  
Pt 6.0169249631 5.8827451502 3.9450516780  

