&CONTROL
   calculation      = 'scf'
   restart_mode     = 'from_scratch'
   tprnfor          = .true.
   outdir           = './outdir'
   disk_io          = 'none'
   pseudo_dir       = './../pseudo'
/
&SYSTEM
   ibrav            = 0
   nat              = 32
   ntyp             = 1
   nbnd             = 346
   ecutwfc          = 70
   ecutrho          = 280
   occupations      = 'smearing'
   degauss          = 0.02
   smearing         = 'marzari-vanderbilt'
   input_dft        = 'PBE'
/
&ELECTRONS
   electron_maxstep = 200
   conv_thr         = 1e-06
   mixing_beta      = 0.1
   mixing_ndim      = 8
   diagonalization  = 'david'
/
&IONS
/
&CELL
/
&FCP
/
&RISM
/
ATOMIC_SPECIES
Pt 195.084 Pt_ONCV_PBE-1.2.upf

K_POINTS automatic
4 4 4  0 0 0

CELL_PARAMETERS angstrom
8.01132129314431 0.00000000000000 0.00000000000000
0.00000000000000 8.01123517587869 0.00000000000000
0.00000000000000 0.00000000000000 7.94150174502049

ATOMIC_POSITIONS angstrom
Pt -0.0096709820 0.0065528017 0.0076479394  
Pt -0.0070984047 2.0043957458 1.9932035718  
Pt 1.9813686725 -0.0066927226 1.9906716028  
Pt 1.9778156010 2.0100756063 0.0096196781  
Pt -0.0080793467 -0.0023692322 3.9671321634  
Pt -0.0019360835 2.0110833237 5.9621943479  
Pt 1.9821917794 -0.0008062755 5.9662739646  
Pt 1.9811883056 2.0106401681 3.9748331052  
Pt -0.0045612683 3.9984626546 -0.0057516418  
Pt -0.0064001865 6.0157904692 1.9793330018  
Pt 1.9784946006 4.0137206255 1.9903886461  
Pt 1.9916031862 6.0036914565 -0.0096804350  
Pt -0.0090841621 4.0040343065 3.9814804646  
Pt -0.0036848377 6.0052358211 5.9600468538  
Pt 1.9784454453 3.9960101379 5.9593817568  
Pt 1.9858936520 6.0083419089 3.9708813263  
Pt 3.9610275515 0.0094269000 0.0028298691  
Pt 3.9736624000 1.9946883904 1.9814216986  
Pt 5.9417148953 0.0044048939 1.9847789610  
Pt 5.9507708551 2.0071271022 -0.0011106835  
Pt 3.9677122754 -0.0030083533 3.9712526363  
Pt 3.9727924616 2.0028201809 5.9752475623  
Pt 5.9455570742 0.0050621549 5.9567593459  
Pt 5.9564249936 1.9935265162 3.9829953669  
Pt 3.9638214945 4.0043336799 0.0024700245  
Pt 3.9698724681 6.0084095797 1.9913386150  
Pt 5.9513777970 4.0074089678 1.9949366329  
Pt 5.9416188444 6.0022707392 0.0054137878  
Pt 3.9592972744 4.0095656283 3.9778667438  
Pt 3.9677253864 6.0099762624 5.9748942597  
Pt 5.9483779229 4.0034037488 5.9640259094  
Pt 5.9416336085 6.0038908145 3.9724013863  

