&CONTROL
   calculation      = 'scf'
   restart_mode     = 'from_scratch'
   tprnfor          = .true.
   outdir           = './outdir'
   disk_io          = 'none'
   pseudo_dir       = './../pseudo'
/
&SYSTEM
   ibrav            = 0
   nat              = 32
   ntyp             = 1
   nbnd             = 346
   ecutwfc          = 70
   ecutrho          = 280
   occupations      = 'smearing'
   degauss          = 0.02
   smearing         = 'marzari-vanderbilt'
   input_dft        = 'PBE'
/
&ELECTRONS
   electron_maxstep = 200
   conv_thr         = 1e-06
   mixing_beta      = 0.1
   mixing_ndim      = 8
   diagonalization  = 'david'
/
&IONS
/
&CELL
/
&FCP
/
&RISM
/
ATOMIC_SPECIES
Pt 195.084 Pt_ONCV_PBE-1.2.upf

K_POINTS automatic
4 4 4  0 0 0

CELL_PARAMETERS angstrom
7.88246943034708 0.00000000000000 0.00000000000000
0.00000000000000 7.99161928480557 0.00000000000000
0.00000000000000 0.00000000000000 8.02224648842902

ATOMIC_POSITIONS angstrom
Pt -0.0068097673 -0.0074929416 0.0082399350  
Pt 0.0045407667 1.9832655311 2.0057090009  
Pt 1.9663818067 0.0037081135 2.0206845164  
Pt 1.9570921524 1.9830955563 0.0038688839  
Pt 0.0085365619 0.0083352836 4.0306788998  
Pt 0.0067528045 1.9843404688 6.0269413622  
Pt 1.9553200879 -0.0032343508 6.0340188536  
Pt 1.9670443986 1.9915334846 4.0233460568  
Pt 0.0072042305 3.9664836220 0.0028700507  
Pt 0.0026390841 5.9435142504 2.0139432700  
Pt 1.9607400871 3.9626962772 2.0018875481  
Pt 1.9574851840 5.9568843983 -0.0052445365  
Pt -0.0088980481 3.9617946761 4.0196066927  
Pt -0.0011030578 5.9462625268 6.0252018963  
Pt 1.9666657022 3.9702720514 6.0341085240  
Pt 1.9631617766 5.9528317745 4.0265172008  
Pt 3.9303724579 -0.0018382004 -0.0072511174  
Pt 3.9329388826 1.9774531366 2.0115809573  
Pt 5.8898027475 0.0019306331 2.0116181795  
Pt 5.8975612581 1.9880758261 -0.0086584237  
Pt 3.9278570707 0.0067311779 4.0254793089  
Pt 3.9230499977 1.9768719725 6.0233612934  
Pt 5.8957388849 -0.0017369050 6.0288747941  
Pt 5.8874631476 1.9832970529 4.0142708162  
Pt 3.9316598782 3.9603519197 -0.0016012153  
Pt 3.9283918420 5.9430646108 2.0201722193  
Pt 5.8935004126 3.9755168500 2.0186884245  
Pt 5.8898597889 5.9541985312 0.0067102163  
Pt 3.9222570570 3.9671657478 4.0217011751  
Pt 3.9362079318 5.9398874366 6.0333966607  
Pt 5.8956936842 3.9576455294 6.0258982181  
Pt 5.8856975962 5.9584705477 4.0124845890  

