&CONTROL
   calculation      = 'scf'
   restart_mode     = 'from_scratch'
   tprnfor          = .true.
   outdir           = './outdir'
   disk_io          = 'none'
   pseudo_dir       = './../pseudo'
/
&SYSTEM
   ibrav            = 0
   nat              = 32
   ntyp             = 1
   nbnd             = 346
   ecutwfc          = 70
   ecutrho          = 280
   occupations      = 'smearing'
   degauss          = 0.02
   smearing         = 'marzari-vanderbilt'
   input_dft        = 'PBE'
/
&ELECTRONS
   electron_maxstep = 200
   conv_thr         = 1e-06
   mixing_beta      = 0.1
   mixing_ndim      = 8
   diagonalization  = 'david'
/
&IONS
/
&CELL
/
&FCP
/
&RISM
/
ATOMIC_SPECIES
Pt 195.084 Pt_ONCV_PBE-1.2.upf

K_POINTS automatic
4 4 4  0 0 0

CELL_PARAMETERS angstrom
8.01294763009940 0.00000000000000 0.00000000000000
0.00000000000000 7.99857786690552 0.00000000000000
0.00000000000000 0.00000000000000 7.92872637639504

ATOMIC_POSITIONS angstrom
Pt 0.0025069648 -0.0037966874 -0.0079777905  
Pt 0.0068272832 2.0050873003 1.9642194416  
Pt 2.0201093225 0.0008786565 1.9654148485  
Pt 2.0100995852 2.0114488158 0.0045228073  
Pt 0.0024990925 0.0084600930 3.9223105998  
Pt 0.0010534245 2.0095248515 5.8899027676  
Pt 2.0097553604 -0.0022319779 5.8983573172  
Pt 2.0145996201 2.0153220727 3.9351869330  
Pt -0.0000324017 4.0234248297 0.0048822027  
Pt -0.0074577073 6.0334446559 1.9606598480  
Pt 2.0194172959 4.0101954487 1.9560965731  
Pt 2.0215986258 6.0237978320 0.0026080329  
Pt -0.0056090827 4.0126946525 3.9325176217  
Pt -0.0030512854 6.0257525466 5.8795932934  
Pt 2.0090677094 4.0179930340 5.8868193553  
Pt 2.0163762160 6.0257137775 3.9268838335  
Pt 4.0174871897 -0.0047913232 -0.0021639931  
Pt 4.0344974247 2.0046264274 1.9722457518  
Pt 6.0284434960 0.0016640926 1.9678077547  
Pt 6.0398657023 2.0153627280 -0.0066727729  
Pt 4.0324006742 0.0051832317 3.9181885029  
Pt 4.0344985225 2.0053402599 5.8825172615  
Pt 6.0420163240 0.0084010001 5.8948711875  
Pt 6.0378639015 2.0028895710 3.9201660377  
Pt 4.0230384077 4.0228168143 0.0038046561  
Pt 4.0219200826 6.0194113748 1.9586861145  
Pt 6.0470671683 4.0170292460 1.9683796115  
Pt 6.0318181048 6.0196923543 -0.0078385176  
Pt 4.0173869248 4.0108827005 3.9242220167  
Pt 4.0169698808 6.0259478679 5.8968244274  
Pt 6.0459158386 4.0191761249 5.8811000720  
Pt 6.0360738797 6.0311340526 3.9351052398  

