&CONTROL
   calculation      = 'scf'
   restart_mode     = 'from_scratch'
   tprnfor          = .true.
   outdir           = './outdir'
   disk_io          = 'none'
   pseudo_dir       = './../pseudo'
/
&SYSTEM
   ibrav            = 0
   nat              = 32
   ntyp             = 1
   nbnd             = 346
   ecutwfc          = 70
   ecutrho          = 280
   occupations      = 'smearing'
   degauss          = 0.02
   smearing         = 'marzari-vanderbilt'
   input_dft        = 'PBE'
/
&ELECTRONS
   electron_maxstep = 200
   conv_thr         = 1e-06
   mixing_beta      = 0.1
   mixing_ndim      = 8
   diagonalization  = 'david'
/
&IONS
/
&CELL
/
&FCP
/
&RISM
/
ATOMIC_SPECIES
Pt 195.084 Pt_ONCV_PBE-1.2.upf

K_POINTS automatic
4 4 4  0 0 0

CELL_PARAMETERS angstrom
7.91722817853976 0.00000000000000 0.00000000000000
0.00000000000000 7.97444711377809 0.00000000000000
0.00000000000000 0.00000000000000 7.99676556803516

ATOMIC_POSITIONS angstrom
Pt -0.0044721529 0.0047106825 -0.0052987076  
Pt -0.0052415359 1.9719509254 1.9850281011  
Pt 1.9738190470 0.0022336174 2.0013294516  
Pt 1.9668163384 1.9801645958 -0.0011166045  
Pt 0.0077399156 -0.0093678535 3.9812152498  
Pt 0.0068536924 1.9791672799 5.9664537332  
Pt 1.9707973266 0.0082466702 5.9738587933  
Pt 1.9662985122 1.9767519925 3.9872063136  
Pt -0.0097657821 3.9544353206 0.0064625900  
Pt 0.0076595739 5.9473520027 2.0002106451  
Pt 1.9663477170 3.9577999961 1.9970285214  
Pt 1.9668411952 5.9353248847 0.0043434095  
Pt -0.0088252098 3.9589638853 3.9846529217  
Pt 0.0018768379 5.9523750856 5.9654723819  
Pt 1.9722482873 3.9597867972 5.9734978163  
Pt 1.9690203418 5.9457037823 3.9753885230  
Pt 3.9491892583 0.0061050041 0.0092420087  
Pt 3.9577894359 1.9901664198 1.9849552065  
Pt 5.9325163669 -0.0070835220 1.9934572103  
Pt 5.9212496783 1.9856659494 0.0004928732  
Pt 3.9513148554 -0.0076381515 3.9777432459  
Pt 3.9495175124 1.9730898118 5.9735839214  
Pt 5.9293765220 0.0099338110 5.9678441426  
Pt 5.9221714053 1.9821008475 3.9820028547  
Pt 3.9583184141 3.9633805795 0.0036613802  
Pt 3.9524603253 5.9447775903 1.9864953756  
Pt 5.9193635064 3.9629901521 1.9837492614  
Pt 5.9145792175 5.9350864006 -0.0067315728  
Pt 3.9571860811 3.9610060796 3.9862358269  
Pt 3.9507223744 5.9451208827 5.9716540318  
Pt 5.9290849656 3.9633400693 5.9685745610  
Pt 5.9174788958 5.9488704015 3.9848791236  

