&CONTROL
   calculation      = 'scf'
   restart_mode     = 'from_scratch'
   tprnfor          = .true.
   outdir           = './outdir'
   disk_io          = 'none'
   pseudo_dir       = '/scratch/ch24d003/pseudo'
/
&SYSTEM
   ibrav            = 0
   nat              = 32
   ntyp             = 1
   nbnd             = 346
   ecutwfc          = 70
   ecutrho          = 280
   occupations      = 'smearing'
   degauss          = 0.02
   smearing         = 'marzari-vanderbilt'
   input_dft        = 'PBE'
/
&ELECTRONS
   electron_maxstep = 200
   conv_thr         = 1e-06
   mixing_beta      = 0.1
   mixing_ndim      = 8
   diagonalization  = 'david'
/
&IONS
/
&CELL
/
&FCP
/
&RISM
/
ATOMIC_SPECIES
Pt 195.084 Pt_ONCV_PBE-1.2.upf

K_POINTS automatic
4 4 4  0 0 0

CELL_PARAMETERS angstrom
7.89483400000000 0.00000000000000 0.00000000000000
0.00000000000000 7.87004400000000 0.00000000000000
0.00000000000000 0.00000000000000 8.01469200000000

ATOMIC_POSITIONS angstrom
Pt 7.8001785000 7.7661242000 0.0728239940  
Pt 7.8309170000 1.9845033000 2.0228336000  
Pt 1.8929694000 7.8491044000 2.0227544000  
Pt 1.8546125000 1.8063891000 7.9573407000  
Pt 7.8868356000 0.0167288100 4.0799055000  
Pt 0.0150571130 1.9027153000 6.0367890000  
Pt 2.0297883000 7.7599180000 6.0121937000  
Pt 1.8770632000 1.9666816000 3.9527364000  
Pt 0.0680232000 3.9990120000 0.0524720620  
Pt 0.0415615000 5.9125366000 2.0745550000  
Pt 2.0298270000 3.9004662000 1.9747018000  
Pt 1.9997549000 5.8796750000 7.9975367000  
Pt 7.8613840000 3.9135870000 4.0425140000  
Pt 0.1067227000 5.9320390000 6.0422720000  
Pt 1.9581771000 3.9088940000 5.9862920000  
Pt 1.9811747000 5.8434906000 4.0176340000  
Pt 3.9734235000 7.8335190000 0.0172247940  
Pt 3.9192960000 1.9515806000 1.8605542000  
Pt 5.9497595000 0.0506093840 2.0069850000  
Pt 6.0206923000 2.1020868000 0.0020928846  
Pt 3.9543460000 0.0873840150 3.9562390000  
Pt 3.8647385000 2.0013766000 6.0247245000  
Pt 5.9495680000 0.0698047650 5.9596750000  
Pt 5.9479210000 1.9998565000 4.0529957000  
Pt 3.9390597000 3.9145207000 7.9638620000  
Pt 3.9501698000 5.8499236000 2.0689420000  
Pt 5.8827800000 3.9819264000 1.8816698000  
Pt 5.9410300000 5.9231390000 7.9306790000  
Pt 3.9410598000 4.0153310000 3.9595273000  
Pt 3.9993200000 5.9476430000 5.9976750000  
Pt 5.8195360000 3.8897738000 6.0255180000  
Pt 6.0187170000 5.9448595000 4.2028010000  

