&CONTROL
   calculation      = 'scf'
   restart_mode     = 'from_scratch'
   tprnfor          = .true.
   outdir           = './outdir'
   disk_io          = 'none'
   pseudo_dir       = './../pseudo'
/
&SYSTEM
   ibrav            = 0
   nat              = 32
   ntyp             = 1
   nbnd             = 346
   ecutwfc          = 70
   ecutrho          = 280
   occupations      = 'smearing'
   degauss          = 0.02
   smearing         = 'marzari-vanderbilt'
   input_dft        = 'PBE'
/
&ELECTRONS
   electron_maxstep = 200
   conv_thr         = 1e-06
   mixing_beta      = 0.1
   mixing_ndim      = 8
   diagonalization  = 'david'
/
&IONS
/
&CELL
/
&FCP
/
&RISM
/
ATOMIC_SPECIES
Pt 195.084 Pt_ONCV_PBE-1.2.upf

K_POINTS automatic
4 4 4  0 0 0

CELL_PARAMETERS angstrom
7.99176885726024 0.00000000000000 0.00000000000000
0.00000000000000 7.91802955895376 0.00000000000000
0.00000000000000 0.00000000000000 7.92470479428170

ATOMIC_POSITIONS angstrom
Pt -0.0076745916 -0.0042445531 -0.0023684929  
Pt -0.0034715482 2.0016749745 1.9727360800  
Pt 1.9826977502 0.0084285123 1.9819180655  
Pt 1.9750566814 2.0033414862 0.0045504147  
Pt 0.0002486717 0.0065358103 3.9426366809  
Pt 0.0037650085 2.0054461824 5.9161404032  
Pt 1.9778765093 -0.0075594600 5.9221712949  
Pt 1.9816999153 1.9993677847 3.9464631725  
Pt 0.0073019233 4.0022987384 -0.0039698806  
Pt 0.0079643778 6.0064572035 1.9781233184  
Pt 1.9714151459 4.0073374662 1.9777134024  
Pt 1.9802799170 5.9964706713 -0.0066049672  
Pt -0.0012732001 4.0027639475 3.9507921990  
Pt -0.0039030174 6.0048782068 5.9344809686  
Pt 1.9709155288 3.9961805516 5.9210486626  
Pt 1.9869141263 6.0049380960 3.9529920694  
Pt 3.9590679701 0.0062227000 0.0010713229  
Pt 3.9694188886 2.0078586770 1.9758086602  
Pt 5.9404337138 0.0035295868 1.9811540541  
Pt 5.9341425796 2.0044200173 0.0018164712  
Pt 3.9709846477 0.0086383305 3.9524448020  
Pt 3.9546996506 1.9981692809 5.9182812263  
Pt 5.9447920011 0.0097911702 5.9333308515  
Pt 5.9356070410 1.9997892443 3.9442307457  
Pt 3.9531358215 3.9922423530 0.0047519683  
Pt 3.9535214910 6.0021592983 1.9756454370  
Pt 5.9390470151 4.0063283756 1.9682954731  
Pt 5.9351357411 6.0042152779 -0.0077115858  
Pt 3.9620343905 3.9946823007 3.9491422373  
Pt 3.9684454683 5.9951531025 5.9309240279  
Pt 5.9378107367 4.0072540625 5.9185237694  
Pt 5.9339864005 5.9995611628 3.9473169338  

