&CONTROL
   calculation      = 'scf'
   restart_mode     = 'from_scratch'
   tprnfor          = .true.
   outdir           = './outdir'
   disk_io          = 'none'
   pseudo_dir       = './../pseudo'
/
&SYSTEM
   ibrav            = 0
   nat              = 32
   ntyp             = 1
   nbnd             = 346
   ecutwfc          = 70
   ecutrho          = 280
   occupations      = 'smearing'
   degauss          = 0.02
   smearing         = 'marzari-vanderbilt'
   input_dft        = 'PBE'
/
&ELECTRONS
   electron_maxstep = 200
   conv_thr         = 1e-06
   mixing_beta      = 0.1
   mixing_ndim      = 8
   diagonalization  = 'david'
/
&IONS
/
&CELL
/
&FCP
/
&RISM
/
ATOMIC_SPECIES
Pt 195.084 Pt_ONCV_PBE-1.2.upf

K_POINTS automatic
4 4 4  0 0 0

CELL_PARAMETERS angstrom
7.89965125782817 0.00000000000000 0.00000000000000
0.00000000000000 7.96797650389290 0.00000000000000
0.00000000000000 0.00000000000000 7.88561674197594

ATOMIC_POSITIONS angstrom
Pt -0.0005214731 0.0092212898 -0.0045776729  
Pt -0.0042026318 1.9700263921 1.9686052981  
Pt 1.9548655697 -0.0078816727 1.9782377766  
Pt 1.9512556691 1.9776122387 -0.0016628993  
Pt 0.0088494110 0.0052358245 3.9411608994  
Pt -0.0074456381 1.9706149088 5.9174583616  
Pt 1.9491836094 0.0025048882 5.9084817012  
Pt 1.9539824664 1.9716348020 3.9433097820  
Pt 0.0069904075 3.9403537143 -0.0073309965  
Pt -0.0066821824 5.9290172269 1.9794502912  
Pt 1.9621017814 3.9376202097 1.9675598562  
Pt 1.9460284105 5.9124005755 0.0074279188  
Pt -0.0051444144 3.9468586259 3.9316193467  
Pt -0.0070616680 5.9289447745 5.9177678204  
Pt 1.9528833225 3.9514296675 5.9161563356  
Pt 1.9642336761 5.9158490259 3.9491579783  
Pt 3.9150011078 0.0089560551 0.0030725556  
Pt 3.9101546189 1.9823956203 1.9694018624  
Pt 5.8617804451 -0.0059403805 1.9765249409  
Pt 5.8710027707 1.9652637254 -0.0004208571  
Pt 3.9142633346 0.0052177633 3.9377612239  
Pt 3.9090287699 1.9823341700 5.9159866919  
Pt 5.8749497467 0.0018216399 5.9071010340  
Pt 5.8666284852 1.9821151139 3.9352903497  
Pt 3.9061926025 3.9443467349 -0.0080798753  
Pt 3.9168345690 5.9227053086 1.9630400609  
Pt 5.8710884917 3.9451412202 1.9650816888  
Pt 5.8639694247 5.9135532330 -0.0089062914  
Pt 3.9075416174 3.9492817288 3.9339588092  
Pt 3.9150066744 5.9291027811 5.9122689817  
Pt 5.8589743433 3.9515684702 5.9077975643  
Pt 5.8755536149 5.9144280611 3.9337175172  

