&CONTROL
   calculation      = 'scf'
   restart_mode     = 'from_scratch'
   tprnfor          = .true.
   outdir           = './outdir'
   disk_io          = 'none'
   pseudo_dir       = '/scratch/ch24d003/pseudo'
/
&SYSTEM
   ibrav            = 0
   nat              = 32
   ntyp             = 1
   nbnd             = 346
   ecutwfc          = 70
   ecutrho          = 280
   occupations      = 'smearing'
   degauss          = 0.02
   smearing         = 'marzari-vanderbilt'
   input_dft        = 'PBE'
/
&ELECTRONS
   electron_maxstep = 200
   conv_thr         = 1e-06
   mixing_beta      = 0.1
   mixing_ndim      = 8
   diagonalization  = 'david'
/
&IONS
/
&CELL
/
&FCP
/
&RISM
/
ATOMIC_SPECIES
Pt 195.084 Pt_ONCV_PBE-1.2.upf

K_POINTS automatic
4 4 4  0 0 0

CELL_PARAMETERS angstrom
7.89483400000000 0.00000000000000 0.00000000000000
0.00000000000000 7.87004400000000 0.00000000000000
0.00000000000000 0.00000000000000 8.01469200000000

ATOMIC_POSITIONS angstrom
Pt 7.7765450000 7.7981997000 7.9942710000  
Pt 7.7849145000 1.8963333000 2.1287522000  
Pt 1.9787823000 0.0681298700 1.9814013000  
Pt 1.8775218000 1.9543115000 0.0900073100  
Pt 0.0920360460 7.8342156000 4.1146245000  
Pt 0.0555408150 2.0776180000 5.9582314000  
Pt 1.9525783000 0.0478398950 6.0544686000  
Pt 1.9820340000 2.0013485000 3.8615336000  
Pt 7.8768487000 3.9951146000 7.9709580000  
Pt 7.8589187000 5.8290396000 1.9757701000  
Pt 2.0444944000 4.0426035000 1.9149462000  
Pt 1.9419947000 5.9042673000 8.0046620000  
Pt 0.0342109600 3.8700736000 3.8843591000  
Pt 7.8574476000 5.8483250000 5.9207360000  
Pt 2.0292244000 3.9349017000 6.0520205000  
Pt 2.0180733000 5.8567367000 3.8300319000  
Pt 4.0270004000 0.0853498400 0.1428993800  
Pt 3.9212940000 1.9965652000 2.0031670000  
Pt 5.8647860000 7.7503630000 1.9741427000  
Pt 6.0478040000 2.0989960000 0.0257342400  
Pt 3.7947800000 0.0656640800 4.0649447000  
Pt 3.8590224000 1.9631089000 6.0723540000  
Pt 5.8667050000 7.8616890000 6.0732656000  
Pt 5.9651294000 1.7973894000 4.0107140000  
Pt 3.9933230000 3.8883274000 7.9954060000  
Pt 3.9922510000 5.9065986000 1.9472697000  
Pt 5.9636784000 3.8918330000 2.1183555000  
Pt 5.9319900000 5.8790960000 0.0154752610  
Pt 4.0481860000 4.0269217000 4.0005960000  
Pt 4.0355810000 5.8686810000 6.0805836000  
Pt 5.9396057000 3.8736155000 5.9740980000  
Pt 5.7879960000 5.9919434000 4.0207400000  

