&CONTROL
   calculation      = 'scf'
   restart_mode     = 'from_scratch'
   tprnfor          = .true.
   outdir           = './outdir'
   disk_io          = 'none'
   pseudo_dir       = '/scratch/ch24d003/pseudo'
/
&SYSTEM
   ibrav            = 0
   nat              = 32
   ntyp             = 1
   nbnd             = 346
   ecutwfc          = 70
   ecutrho          = 280
   occupations      = 'smearing'
   degauss          = 0.02
   smearing         = 'marzari-vanderbilt'
   input_dft        = 'PBE'
/
&ELECTRONS
   electron_maxstep = 200
   conv_thr         = 1e-06
   mixing_beta      = 0.1
   mixing_ndim      = 8
   diagonalization  = 'david'
/
&IONS
/
&CELL
/
&FCP
/
&RISM
/
ATOMIC_SPECIES
Pt 195.084 Pt_ONCV_PBE-1.2.upf

K_POINTS automatic
4 4 4  0 0 0

CELL_PARAMETERS angstrom
7.89483400000000 0.00000000000000 0.00000000000000
0.00000000000000 7.87004400000000 0.00000000000000
0.00000000000000 0.00000000000000 8.01469200000000

ATOMIC_POSITIONS angstrom
Pt 0.0553781200 0.0530315800 7.9763865000  
Pt 0.0232230160 2.0769436000 1.8330327000  
Pt 2.1010137000 7.7672453000 1.9867243000  
Pt 2.1243796000 1.9309760000 0.0047460560  
Pt 7.8538923000 7.8587594000 3.9280648000  
Pt 0.0819686950 2.0104210000 5.9763730000  
Pt 2.0426123000 7.7632910000 5.9962745000  
Pt 1.9034110000 1.8943236000 3.9711437000  
Pt 0.0080055190 3.9951534000 8.0066260000  
Pt 0.0730991400 6.1288857000 1.9728086000  
Pt 1.8776450000 4.0376115000 2.1046069000  
Pt 1.9639081000 5.8867930000 7.9941310000  
Pt 7.8280954000 4.0457296000 3.9909570000  
Pt 7.8515644000 5.8767853000 6.0400257000  
Pt 1.9671785000 3.8348567000 5.9438080000  
Pt 2.0108662000 5.9355226000 3.9386140000  
Pt 4.0840240000 7.6247840000 0.1325344100  
Pt 3.8846822000 2.0409548000 2.0423790000  
Pt 5.8670597000 0.1464029100 1.9993580000  
Pt 5.9086630000 2.0069973000 7.9574180000  
Pt 3.8858302000 0.0605882400 3.9371977000  
Pt 3.9695158000 1.9464566000 5.9938726000  
Pt 5.9663177000 0.0652250100 6.0925460000  
Pt 5.9010897000 1.9589398000 3.9692128000  
Pt 3.9095340000 3.9674914000 0.1105151550  
Pt 4.0162735000 5.8174043000 2.1021082000  
Pt 5.8373013000 3.9118574000 2.0859450000  
Pt 5.9950595000 5.7500277000 0.0326666870  
Pt 3.8657403000 3.8848665000 3.9718664000  
Pt 3.8777616000 5.7943707000 5.9456500000  
Pt 5.8672423000 3.7875670000 6.0759920000  
Pt 5.8082943000 6.0449376000 4.1429350000  

