&CONTROL
   calculation      = 'scf'
   restart_mode     = 'from_scratch'
   tprnfor          = .true.
   outdir           = './outdir'
   disk_io          = 'none'
   pseudo_dir       = './../pseudo'
/
&SYSTEM
   ibrav            = 0
   nat              = 32
   ntyp             = 1
   nbnd             = 346
   ecutwfc          = 70
   ecutrho          = 280
   occupations      = 'smearing'
   degauss          = 0.02
   smearing         = 'marzari-vanderbilt'
   input_dft        = 'PBE'
/
&ELECTRONS
   electron_maxstep = 200
   conv_thr         = 1e-06
   mixing_beta      = 0.1
   mixing_ndim      = 8
   diagonalization  = 'david'
/
&IONS
/
&CELL
/
&FCP
/
&RISM
/
ATOMIC_SPECIES
Pt 195.084 Pt_ONCV_PBE-1.2.upf

K_POINTS automatic
4 4 4  0 0 0

CELL_PARAMETERS angstrom
7.90613722148288 0.00000000000000 0.00000000000000
0.00000000000000 7.88168942827208 0.00000000000000
0.00000000000000 0.00000000000000 7.93886948256517

ATOMIC_POSITIONS angstrom
Pt 0.0076439357 -0.0078037576 -0.0072146360  
Pt -0.0017719756 1.9636662804 1.9718599335  
Pt 1.9645178730 -0.0026612511 1.9687291369  
Pt 1.9634558131 1.9487953636 -0.0031427073  
Pt 0.0088952186 -0.0066442473 3.9449992348  
Pt -0.0024676146 1.9610875198 5.9268885318  
Pt 1.9612308413 -0.0048533936 5.9367119091  
Pt 1.9516350043 1.9571531622 3.9551935406  
Pt 0.0059402924 3.9125040783 0.0007193459  
Pt -0.0081667449 5.8591885437 1.9822552206  
Pt 1.9537058032 3.9023475230 1.9771034220  
Pt 1.9595137438 5.8662149904 0.0078465592  
Pt -0.0070016213 3.9038168366 3.9567978841  
Pt -0.0041946026 5.8574673699 5.9391660919  
Pt 1.9515498161 3.9097754610 5.9270595310  
Pt 1.9493797383 5.8685864601 3.9546205152  
Pt 3.9166085798 -0.0032094891 0.0082236108  
Pt 3.9216472219 1.9474687808 1.9737867065  
Pt 5.8868520512 -0.0088805464 1.9744787579  
Pt 5.8696625206 1.9542584604 -0.0096843256  
Pt 3.9144270407 -0.0097914543 3.9467189445  
Pt 3.9105370746 1.9574815135 5.9385164783  
Pt 5.8686707938 -0.0085223405 5.9373351477  
Pt 5.8745788618 1.9530139395 3.9479938076  
Pt 3.9179804728 3.9009489526 0.0040961491  
Pt 3.9244708530 5.8618763775 1.9785334613  
Pt 5.8708083653 3.9106540480 1.9848342496  
Pt 5.8708996592 5.8722869197 -0.0048914316  
Pt 3.9132935164 3.9014561841 3.9576838830  
Pt 3.9157957767 5.8710904773 5.9343584768  
Pt 5.8865026181 3.9188585959 5.9370556487  
Pt 5.8750925973 5.8737287594 3.9626510327  

