&CONTROL
   calculation      = 'scf'
   restart_mode     = 'from_scratch'
   tprnfor          = .true.
   outdir           = './outdir'
   disk_io          = 'none'
   pseudo_dir       = '/scratch/ch24d003/pseudo'
/
&SYSTEM
   ibrav            = 0
   nat              = 32
   ntyp             = 1
   nbnd             = 346
   ecutwfc          = 70
   ecutrho          = 280
   occupations      = 'smearing'
   degauss          = 0.02
   smearing         = 'marzari-vanderbilt'
   input_dft        = 'PBE'
/
&ELECTRONS
   electron_maxstep = 200
   conv_thr         = 1e-06
   mixing_beta      = 0.1
   mixing_ndim      = 8
   diagonalization  = 'david'
/
&IONS
/
&CELL
/
&FCP
/
&RISM
/
ATOMIC_SPECIES
Pt 195.084 Pt_ONCV_PBE-1.2.upf

K_POINTS automatic
4 4 4  0 0 0

CELL_PARAMETERS angstrom
7.89483400000000 0.00000000000000 0.00000000000000
0.00000000000000 7.87004400000000 0.00000000000000
0.00000000000000 0.00000000000000 8.01469200000000

ATOMIC_POSITIONS angstrom
Pt 7.8518290000 0.0112741280 7.8721604000  
Pt 0.0072197653 1.9907845000 2.0534510000  
Pt 1.9412796000 0.0543915150 2.0231245000  
Pt 2.1098847000 1.9134223000 7.9081000000  
Pt 7.8023314000 7.7964160000 3.9905677000  
Pt 7.8337260000 1.9162253000 5.9533090000  
Pt 1.9445565000 7.8517650000 5.9173750000  
Pt 1.9750782000 1.9176375000 3.9972918000  
Pt 0.1516224000 3.9807203000 0.0863954700  
Pt 0.0529560900 5.9791627000 1.9657215000  
Pt 2.0022805000 3.8760930000 1.9118524000  
Pt 2.0920070000 6.0170490000 7.9879055000  
Pt 7.6856020000 3.9951090000 4.0794272000  
Pt 7.8929300000 5.8758016000 5.9646800000  
Pt 1.9568775000 3.9174461000 6.1559370000  
Pt 1.9621736000 5.8776627000 4.0158086000  
Pt 3.9884787000 7.8553004000 7.8843775000  
Pt 3.8972354000 1.9643170000 1.9600782000  
Pt 5.9145150000 7.7925014000 1.9263747000  
Pt 5.8987713000 1.9873557000 0.1289135400  
Pt 3.9901330000 0.0871827700 4.0819626000  
Pt 3.9293800000 2.0445652000 6.0400470000  
Pt 5.9303470000 7.8574624000 6.0113060000  
Pt 5.8877800000 1.8783705000 4.0204296000  
Pt 4.0504923000 3.8558373000 0.0515540760  
Pt 3.8877008000 5.9358510000 2.1199400000  
Pt 5.9942700000 4.0220120000 2.0300670000  
Pt 5.8440585000 5.9494920000 8.0075260000  
Pt 3.9980564000 3.9272723000 4.0326420000  
Pt 3.9813607000 5.7775770000 6.0608416000  
Pt 5.9419120000 3.9200637000 6.0201690000  
Pt 5.8034515000 5.9491220000 4.0118770000  

