&CONTROL
   calculation      = 'scf'
   restart_mode     = 'from_scratch'
   tprnfor          = .true.
   outdir           = './outdir'
   disk_io          = 'none'
   pseudo_dir       = './../pseudo'
/
&SYSTEM
   ibrav            = 0
   nat              = 32
   ntyp             = 1
   nbnd             = 346
   ecutwfc          = 70
   ecutrho          = 280
   occupations      = 'smearing'
   degauss          = 0.02
   smearing         = 'marzari-vanderbilt'
   input_dft        = 'PBE'
/
&ELECTRONS
   electron_maxstep = 200
   conv_thr         = 1e-06
   mixing_beta      = 0.1
   mixing_ndim      = 8
   diagonalization  = 'david'
/
&IONS
/
&CELL
/
&FCP
/
&RISM
/
ATOMIC_SPECIES
Pt 195.084 Pt_ONCV_PBE-1.2.upf

K_POINTS automatic
4 4 4  0 0 0

CELL_PARAMETERS angstrom
7.94490800200000 0.00000000000000 0.00000000000000
0.00000000000000 7.94490800200000 0.00000000000000
0.00000000000000 0.00000000000000 7.94490800200000

ATOMIC_POSITIONS angstrom
Pt 0.0000000000 0.0000000000 0.0000000000  
Pt 0.0000000000 1.9862270000 1.9862270000  
Pt 1.9862270000 0.0000000000 1.9862270000  
Pt 1.9862270000 1.9862270000 0.0000000000  
Pt 0.0000000000 0.0000000000 3.9724540000  
Pt 0.0000000000 1.9862270000 5.9586810000  
Pt 1.9862270000 0.0000000000 5.9586810000  
Pt 1.9862270000 1.9862270000 3.9724540000  
Pt 0.0000000000 3.9724540000 0.0000000000  
Pt 0.0000000000 5.9586810000 1.9862270000  
Pt 1.9862270000 3.9724540000 1.9862270000  
Pt 1.9862270000 5.9586810000 0.0000000000  
Pt 0.0000000000 3.9724540000 3.9724540000  
Pt 0.0000000000 5.9586810000 5.9586810000  
Pt 1.9862270000 3.9724540000 5.9586810000  
Pt 1.9862270000 5.9586810000 3.9724540000  
Pt 3.9724540000 0.0000000000 0.0000000000  
Pt 3.9724540000 1.9862270000 1.9862270000  
Pt 5.9586810000 0.0000000000 1.9862270000  
Pt 5.9586810000 1.9862270000 0.0000000000  
Pt 3.9724540000 0.0000000000 3.9724540000  
Pt 3.9724540000 1.9862270000 5.9586810000  
Pt 5.9586810000 0.0000000000 5.9586810000  
Pt 5.9586810000 1.9862270000 3.9724540000  
Pt 3.9724540000 3.9724540000 0.0000000000  
Pt 3.9724540000 5.9586810000 1.9862270000  
Pt 5.9586810000 3.9724540000 1.9862270000  
Pt 5.9586810000 5.9586810000 0.0000000000  
Pt 3.9724540000 3.9724540000 3.9724540000  
Pt 3.9724540000 5.9586810000 5.9586810000  
Pt 5.9586810000 3.9724540000 5.9586810000  
Pt 5.9586810000 5.9586810000 3.9724540000  

